 $scf dirscf=.t. damp=.t. shift=.f.
   soscf=.f. diis=.t. fdiff=.f. extrap=.f. $end
 $system mwords=500 memddi=500 $end
 $intgrl schwrz=.t. intomp=1 shfock=.f. $end
 $guess guess=hcore $end
 $contrl scftyp=rhf runtyp=energy nprint=-5
     icharg=0 ispher=0 inttyp=eric 
     maxit=200 $end
 $end
 $data
2-pyrodixine_2-aminopyridine_2 
C1
O    8.0    0.4346708419 -0.9710625227 -0.5252195446
 S   6
 1      8588.500                  0.00189515
 2      1297.230                  0.0143859
 3       299.2960                 0.0707320
 4        87.37710                0.2400010
 5        25.67890                0.5947970
 6         3.740040               0.2808020
 S   3
 1        42.11750                0.113889          
 2         9.628370               0.920811         
 3         2.853320              -0.00327447      
 S   1
 1         0.905661               1.000000       
 S   1
 1         0.255611               1.000000      
 S   1
 1         0.0845000              1.0000000    
 P   3
 1        42.11750                0.0365114
 2         9.628370               0.237153
 3         2.853320               0.819702
 P   1
 1         0.905661               1.000000
 P   1
 1         0.255611               1.000000
 P   1
 1         0.0845000              1.0000000
 D   1
 1         2.5840000              1.0000000
 D   1
 1         0.6460000              1.0000000

N    7.0    -0.7161576345 0.6230629410 0.6184480693
 S   6
 1      6293.480                  0.00196979
 2       949.0440                 0.0149613
 3       218.7760                 0.0735006
 4        63.69160                0.2489370
 5        18.82820                0.6024600
 6         2.720230               0.2562020
 S   3
 1        30.63310                0.111906         
 2         7.026140               0.921666        
 3         2.112050              -0.00256919     
 S   1
 1         0.684009               1.000000      
 S   1
 1         0.200878               1.000000     
 S   1
 1         0.0639000              1.0000000   
 P   3
 1        30.63310                0.0383119
 2         7.026140               0.237403
 3         2.112050               0.817592
 P   1
 1         0.684009               1.000000
 P   1
 1         0.200878               1.000000
 P   1
 1         0.0639000              1.0000000
 D   1
 1         1.8260000              1.0000000
 D   1
 1         0.4565000              1.0000000

C    6.0    -2.6982850516 0.6471324262 -1.2467627619
 S   6
 1      4563.240                  0.00196665
 2       682.0240                 0.0152306
 3       154.9730                 0.0761269
 4        44.45530                0.2608010
 5        13.02900                0.6164620
 6         1.827730               0.2210060
 S   3
 1        20.96420                0.114660 
 2         4.803310               0.919999 
 3         1.459330              -0.00303068 
 S   1
 1         0.4834560              1.000000  
 S   1
 1         0.1455850              1.000000  
 S   1
 1         0.0438000              1.0000000  
 P   3
 1        20.96420                0.0402487
 2         4.803310               0.237594
 3         1.459330               0.815854
 P   1
 1         0.4834560              1.000000
 P   1
 1         0.1455850              1.000000
 P   1
 1         0.0438000              1.0000000
 D   1
 1         1.2520000              1.0000000
 D   1
 1         0.3130000              1.0000000

C    6.0    -2.7929356602 1.4874388185 -0.1101426234
 S   6
 1      4563.240                  0.00196665
 2       682.0240                 0.0152306
 3       154.9730                 0.0761269
 4        44.45530                0.2608010
 5        13.02900                0.6164620
 6         1.827730               0.2210060
 S   3
 1        20.96420                0.114660 
 2         4.803310               0.919999 
 3         1.459330              -0.00303068 
 S   1
 1         0.4834560              1.000000  
 S   1
 1         0.1455850              1.000000  
 S   1
 1         0.0438000              1.0000000  
 P   3
 1        20.96420                0.0402487
 2         4.803310               0.237594
 3         1.459330               0.815854
 P   1
 1         0.4834560              1.000000
 P   1
 1         0.1455850              1.000000
 P   1
 1         0.0438000              1.0000000
 D   1
 1         1.2520000              1.0000000
 D   1
 1         0.3130000              1.0000000

C    6.0    -1.7751182268 1.4482796431 0.7934900200
 S   6
 1      4563.240                  0.00196665
 2       682.0240                 0.0152306
 3       154.9730                 0.0761269
 4        44.45530                0.2608010
 5        13.02900                0.6164620
 6         1.827730               0.2210060
 S   3
 1        20.96420                0.114660 
 2         4.803310               0.919999 
 3         1.459330              -0.00303068 
 S   1
 1         0.4834560              1.000000  
 S   1
 1         0.1455850              1.000000  
 S   1
 1         0.0438000              1.0000000  
 P   3
 1        20.96420                0.0402487
 2         4.803310               0.237594
 3         1.459330               0.815854
 P   1
 1         0.4834560              1.000000
 P   1
 1         0.1455850              1.000000
 P   1
 1         0.0438000              1.0000000
 D   1
 1         1.2520000              1.0000000
 D   1
 1         0.3130000              1.0000000

C    6.0    -0.5685544687 -0.2331418685 -0.4587591212
 S   6
 1      4563.240                  0.00196665
 2       682.0240                 0.0152306
 3       154.9730                 0.0761269
 4        44.45530                0.2608010
 5        13.02900                0.6164620
 6         1.827730               0.2210060
 S   3
 1        20.96420                0.114660 
 2         4.803310               0.919999 
 3         1.459330              -0.00303068 
 S   1
 1         0.4834560              1.000000  
 S   1
 1         0.1455850              1.000000  
 S   1
 1         0.0438000              1.0000000  
 P   3
 1        20.96420                0.0402487
 2         4.803310               0.237594
 3         1.459330               0.815854
 P   1
 1         0.4834560              1.000000
 P   1
 1         0.1455850              1.000000
 P   1
 1         0.0438000              1.0000000
 D   1
 1         1.2520000              1.0000000
 D   1
 1         0.3130000              1.0000000

C    6.0    -1.6290960989 -0.1816770463 -1.4264168000
 S   6
 1      4563.240                  0.00196665
 2       682.0240                 0.0152306
 3       154.9730                 0.0761269
 4        44.45530                0.2608010
 5        13.02900                0.6164620
 6         1.827730               0.2210060
 S   3
 1        20.96420                0.114660 
 2         4.803310               0.919999 
 3         1.459330              -0.00303068 
 S   1
 1         0.4834560              1.000000  
 S   1
 1         0.1455850              1.000000  
 S   1
 1         0.0438000              1.0000000  
 P   3
 1        20.96420                0.0402487
 2         4.803310               0.237594
 3         1.459330               0.815854
 P   1
 1         0.4834560              1.000000
 P   1
 1         0.1455850              1.000000
 P   1
 1         0.0438000              1.0000000
 D   1
 1         1.2520000              1.0000000
 D   1
 1         0.3130000              1.0000000

H    1.0    -3.4873264803 0.6691414712 -1.9879675949
 S   3
 1        33.86500                0.0254938
 2         5.094790               0.190373
 3         1.158790               0.852161
 S   1
 1         0.325840               1.000000
 S   1
 1         0.102741               1.000000
 S   1
 1         0.0360000              1.0000000
 P   1
 1         1.5000000              1.0000000
 P   1
 1         0.3750000              1.0000000

H    1.0    -3.6338933989 2.1458639286 0.0409643105
 S   3
 1        33.86500                0.0254938
 2         5.094790               0.190373
 3         1.158790               0.852161
 S   1
 1         0.325840               1.000000
 S   1
 1         0.102741               1.000000
 S   1
 1         0.0360000              1.0000000
 P   1
 1         1.5000000              1.0000000
 P   1
 1         0.3750000              1.0000000

H    1.0    -1.7514180371 2.0611142954 1.6833343443
 S   3
 1        33.86500                0.0254938
 2         5.094790               0.190373
 3         1.158790               0.852161
 S   1
 1         0.325840               1.000000
 S   1
 1         0.102741               1.000000
 S   1
 1         0.0360000              1.0000000
 P   1
 1         1.5000000              1.0000000
 P   1
 1         0.3750000              1.0000000

H    1.0    -1.5308429905 -0.8151760313 -2.2950651385
 S   3
 1        33.86500                0.0254938
 2         5.094790               0.190373
 3         1.158790               0.852161
 S   1
 1         0.325840               1.000000
 S   1
 1         0.102741               1.000000
 S   1
 1         0.0360000              1.0000000
 P   1
 1         1.5000000              1.0000000
 P   1
 1         0.3750000              1.0000000

H    1.0    0.0556941397 0.6340511358 1.3164610444
 S   3
 1        33.86500                0.0254938
 2         5.094790               0.190373
 3         1.158790               0.852161
 S   1
 1         0.325840               1.000000
 S   1
 1         0.102741               1.000000
 S   1
 1         0.0360000              1.0000000
 P   1
 1         1.5000000              1.0000000
 P   1
 1         0.3750000              1.0000000

N    7.0    1.4393792439 0.8079621229 2.5083872680
 S   6
 1      6293.480                  0.00196979
 2       949.0440                 0.0149613
 3       218.7760                 0.0735006
 4        63.69160                0.2489370
 5        18.82820                0.6024600
 6         2.720230               0.2562020
 S   3
 1        30.63310                0.111906         
 2         7.026140               0.921666        
 3         2.112050              -0.00256919     
 S   1
 1         0.684009               1.000000      
 S   1
 1         0.200878               1.000000     
 S   1
 1         0.0639000              1.0000000   
 P   3
 1        30.63310                0.0383119
 2         7.026140               0.237403
 3         2.112050               0.817592
 P   1
 1         0.684009               1.000000
 P   1
 1         0.200878               1.000000
 P   1
 1         0.0639000              1.0000000
 D   1
 1         1.8260000              1.0000000
 D   1
 1         0.4565000              1.0000000

C    6.0    2.6278150928 0.2247453272 2.2609600341
 S   6
 1      4563.240                  0.00196665
 2       682.0240                 0.0152306
 3       154.9730                 0.0761269
 4        44.45530                0.2608010
 5        13.02900                0.6164620
 6         1.827730               0.2210060
 S   3
 1        20.96420                0.114660 
 2         4.803310               0.919999 
 3         1.459330              -0.00303068 
 S   1
 1         0.4834560              1.000000  
 S   1
 1         0.1455850              1.000000  
 S   1
 1         0.0438000              1.0000000  
 P   3
 1        20.96420                0.0402487
 2         4.803310               0.237594
 3         1.459330               0.815854
 P   1
 1         0.4834560              1.000000
 P   1
 1         0.1455850              1.000000
 P   1
 1         0.0438000              1.0000000
 D   1
 1         1.2520000              1.0000000
 D   1
 1         0.3130000              1.0000000

C    6.0    3.7501459937 0.4875347313 3.0814472022
 S   6
 1      4563.240                  0.00196665
 2       682.0240                 0.0152306
 3       154.9730                 0.0761269
 4        44.45530                0.2608010
 5        13.02900                0.6164620
 6         1.827730               0.2210060
 S   3
 1        20.96420                0.114660 
 2         4.803310               0.919999 
 3         1.459330              -0.00303068 
 S   1
 1         0.4834560              1.000000  
 S   1
 1         0.1455850              1.000000  
 S   1
 1         0.0438000              1.0000000  
 P   3
 1        20.96420                0.0402487
 2         4.803310               0.237594
 3         1.459330               0.815854
 P   1
 1         0.4834560              1.000000
 P   1
 1         0.1455850              1.000000
 P   1
 1         0.0438000              1.0000000
 D   1
 1         1.2520000              1.0000000
 D   1
 1         0.3130000              1.0000000

C    6.0    3.6152188966 1.3477638092 4.1459123506
 S   6
 1      4563.240                  0.00196665
 2       682.0240                 0.0152306
 3       154.9730                 0.0761269
 4        44.45530                0.2608010
 5        13.02900                0.6164620
 6         1.827730               0.2210060
 S   3
 1        20.96420                0.114660 
 2         4.803310               0.919999 
 3         1.459330              -0.00303068 
 S   1
 1         0.4834560              1.000000  
 S   1
 1         0.1455850              1.000000  
 S   1
 1         0.0438000              1.0000000  
 P   3
 1        20.96420                0.0402487
 2         4.803310               0.237594
 3         1.459330               0.815854
 P   1
 1         0.4834560              1.000000
 P   1
 1         0.1455850              1.000000
 P   1
 1         0.0438000              1.0000000
 D   1
 1         1.2520000              1.0000000
 D   1
 1         0.3130000              1.0000000

C    6.0    2.3776224672 1.9467839813 4.4042678246
 S   6
 1      4563.240                  0.00196665
 2       682.0240                 0.0152306
 3       154.9730                 0.0761269
 4        44.45530                0.2608010
 5        13.02900                0.6164620
 6         1.827730               0.2210060
 S   3
 1        20.96420                0.114660 
 2         4.803310               0.919999 
 3         1.459330              -0.00303068 
 S   1
 1         0.4834560              1.000000  
 S   1
 1         0.1455850              1.000000  
 S   1
 1         0.0438000              1.0000000  
 P   3
 1        20.96420                0.0402487
 2         4.803310               0.237594
 3         1.459330               0.815854
 P   1
 1         0.4834560              1.000000
 P   1
 1         0.1455850              1.000000
 P   1
 1         0.0438000              1.0000000
 D   1
 1         1.2520000              1.0000000
 D   1
 1         0.3130000              1.0000000

C    6.0    1.3355088194 1.6375834145 3.5528622184
 S   6
 1      4563.240                  0.00196665
 2       682.0240                 0.0152306
 3       154.9730                 0.0761269
 4        44.45530                0.2608010
 5        13.02900                0.6164620
 6         1.827730               0.2210060
 S   3
 1        20.96420                0.114660 
 2         4.803310               0.919999 
 3         1.459330              -0.00303068 
 S   1
 1         0.4834560              1.000000  
 S   1
 1         0.1455850              1.000000  
 S   1
 1         0.0438000              1.0000000  
 P   3
 1        20.96420                0.0402487
 2         4.803310               0.237594
 3         1.459330               0.815854
 P   1
 1         0.4834560              1.000000
 P   1
 1         0.1455850              1.000000
 P   1
 1         0.0438000              1.0000000
 D   1
 1         1.2520000              1.0000000
 D   1
 1         0.3130000              1.0000000

H    1.0    4.6966847483 0.0107072063 2.8645687432
 S   3
 1        33.86500                0.0254938
 2         5.094790               0.190373
 3         1.158790               0.852161
 S   1
 1         0.325840               1.000000
 S   1
 1         0.102741               1.000000
 S   1
 1         0.0360000              1.0000000
 P   1
 1         1.5000000              1.0000000
 P   1
 1         0.3750000              1.0000000

H    1.0    4.4666416443 1.5573447862 4.7805204087
 S   3
 1        33.86500                0.0254938
 2         5.094790               0.190373
 3         1.158790               0.852161
 S   1
 1         0.325840               1.000000
 S   1
 1         0.102741               1.000000
 S   1
 1         0.0360000              1.0000000
 P   1
 1         1.5000000              1.0000000
 P   1
 1         0.3750000              1.0000000

H    1.0    2.2337643520 2.6261373574 5.2309337289
 S   3
 1        33.86500                0.0254938
 2         5.094790               0.190373
 3         1.158790               0.852161
 S   1
 1         0.325840               1.000000
 S   1
 1         0.102741               1.000000
 S   1
 1         0.0360000              1.0000000
 P   1
 1         1.5000000              1.0000000
 P   1
 1         0.3750000              1.0000000

H    1.0    0.3555481893 2.0766499306 3.7061272638
 S   3
 1        33.86500                0.0254938
 2         5.094790               0.190373
 3         1.158790               0.852161
 S   1
 1         0.325840               1.000000
 S   1
 1         0.102741               1.000000
 S   1
 1         0.0360000              1.0000000
 P   1
 1         1.5000000              1.0000000
 P   1
 1         0.3750000              1.0000000

N    7.0    2.6991353332 -0.6255312254 1.2108223843
 S   6
 1      6293.480                  0.00196979
 2       949.0440                 0.0149613
 3       218.7760                 0.0735006
 4        63.69160                0.2489370
 5        18.82820                0.6024600
 6         2.720230               0.2562020
 S   3
 1        30.63310                0.111906         
 2         7.026140               0.921666        
 3         2.112050              -0.00256919     
 S   1
 1         0.684009               1.000000      
 S   1
 1         0.200878               1.000000     
 S   1
 1         0.0639000              1.0000000   
 P   3
 1        30.63310                0.0383119
 2         7.026140               0.237403
 3         2.112050               0.817592
 P   1
 1         0.684009               1.000000
 P   1
 1         0.200878               1.000000
 P   1
 1         0.0639000              1.0000000
 D   1
 1         1.8260000              1.0000000
 D   1
 1         0.4565000              1.0000000

H    1.0    3.5867519698 -1.0040483330 0.9396509544
 S   3
 1        33.86500                0.0254938
 2         5.094790               0.190373
 3         1.158790               0.852161
 S   1
 1         0.325840               1.000000
 S   1
 1         0.102741               1.000000
 S   1
 1         0.0360000              1.0000000
 P   1
 1         1.5000000              1.0000000
 P   1
 1         0.3750000              1.0000000

H    1.0    1.9010283558 -0.7625701794 0.5888872350
 S   3
 1        33.86500                0.0254938
 2         5.094790               0.190373
 3         1.158790               0.852161
 S   1
 1         0.325840               1.000000
 S   1
 1         0.102741               1.000000
 S   1
 1         0.0360000              1.0000000
 P   1
 1         1.5000000              1.0000000
 P   1
 1         0.3750000              1.0000000

H    1.0    0.6177482546 -1.9988314428 -2.1255988249
 S   3
 1        33.86500                0.0254938
 2         5.094790               0.190373
 3         1.158790               0.852161
 S   1
 1         0.325840               1.000000
 S   1
 1         0.102741               1.000000
 S   1
 1         0.0360000              1.0000000
 P   1
 1         1.5000000              1.0000000
 P   1
 1         0.3750000              1.0000000

N    7.0    0.6382231036 -2.6231452317 -2.9295248235
 S   6
 1      6293.480                  0.00196979
 2       949.0440                 0.0149613
 3       218.7760                 0.0735006
 4        63.69160                0.2489370
 5        18.82820                0.6024600
 6         2.720230               0.2562020
 S   3
 1        30.63310                0.111906         
 2         7.026140               0.921666        
 3         2.112050              -0.00256919     
 S   1
 1         0.684009               1.000000      
 S   1
 1         0.200878               1.000000     
 S   1
 1         0.0639000              1.0000000   
 P   3
 1        30.63310                0.0383119
 2         7.026140               0.237403
 3         2.112050               0.817592
 P   1
 1         0.684009               1.000000
 P   1
 1         0.200878               1.000000
 P   1
 1         0.0639000              1.0000000
 D   1
 1         1.8260000              1.0000000
 D   1
 1         0.4565000              1.0000000

H    1.0    0.8307908035 -3.5892721201 -2.7344168988
 S   3
 1        33.86500                0.0254938
 2         5.094790               0.190373
 3         1.158790               0.852161
 S   1
 1         0.325840               1.000000
 S   1
 1         0.102741               1.000000
 S   1
 1         0.0360000              1.0000000
 P   1
 1         1.5000000              1.0000000
 P   1
 1         0.3750000              1.0000000

C    6.0    1.0471706191 -2.1183965052 -4.1336880368
 S   6
 1      4563.240                  0.00196665
 2       682.0240                 0.0152306
 3       154.9730                 0.0761269
 4        44.45530                0.2608010
 5        13.02900                0.6164620
 6         1.827730               0.2210060
 S   3
 1        20.96420                0.114660 
 2         4.803310               0.919999 
 3         1.459330              -0.00303068 
 S   1
 1         0.4834560              1.000000  
 S   1
 1         0.1455850              1.000000  
 S   1
 1         0.0438000              1.0000000  
 P   3
 1        20.96420                0.0402487
 2         4.803310               0.237594
 3         1.459330               0.815854
 P   1
 1         0.4834560              1.000000
 P   1
 1         0.1455850              1.000000
 P   1
 1         0.0438000              1.0000000
 D   1
 1         1.2520000              1.0000000
 D   1
 1         0.3130000              1.0000000

N    7.0    1.0396724235 -0.7838212793 -4.2637337137
 S   6
 1      6293.480                  0.00196979
 2       949.0440                 0.0149613
 3       218.7760                 0.0735006
 4        63.69160                0.2489370
 5        18.82820                0.6024600
 6         2.720230               0.2562020
 S   3
 1        30.63310                0.111906         
 2         7.026140               0.921666        
 3         2.112050              -0.00256919     
 S   1
 1         0.684009               1.000000      
 S   1
 1         0.200878               1.000000     
 S   1
 1         0.0639000              1.0000000   
 P   3
 1        30.63310                0.0383119
 2         7.026140               0.237403
 3         2.112050               0.817592
 P   1
 1         0.684009               1.000000
 P   1
 1         0.200878               1.000000
 P   1
 1         0.0639000              1.0000000
 D   1
 1         1.8260000              1.0000000
 D   1
 1         0.4565000              1.0000000

C    6.0    1.4081863169 -0.2643814355 -5.4356331060
 S   6
 1      4563.240                  0.00196665
 2       682.0240                 0.0152306
 3       154.9730                 0.0761269
 4        44.45530                0.2608010
 5        13.02900                0.6164620
 6         1.827730               0.2210060
 S   3
 1        20.96420                0.114660 
 2         4.803310               0.919999 
 3         1.459330              -0.00303068 
 S   1
 1         0.4834560              1.000000  
 S   1
 1         0.1455850              1.000000  
 S   1
 1         0.0438000              1.0000000  
 P   3
 1        20.96420                0.0402487
 2         4.803310               0.237594
 3         1.459330               0.815854
 P   1
 1         0.4834560              1.000000
 P   1
 1         0.1455850              1.000000
 P   1
 1         0.0438000              1.0000000
 D   1
 1         1.2520000              1.0000000
 D   1
 1         0.3130000              1.0000000

H    1.0    1.3909234154 0.8191808457 -5.4934189690
 S   3
 1        33.86500                0.0254938
 2         5.094790               0.190373
 3         1.158790               0.852161
 S   1
 1         0.325840               1.000000
 S   1
 1         0.102741               1.000000
 S   1
 1         0.0360000              1.0000000
 P   1
 1         1.5000000              1.0000000
 P   1
 1         0.3750000              1.0000000

H    1.0    2.0893270607 -0.5343771558 -7.4585737812
 S   3
 1        33.86500                0.0254938
 2         5.094790               0.190373
 3         1.158790               0.852161
 S   1
 1         0.325840               1.000000
 S   1
 1         0.102741               1.000000
 S   1
 1         0.0360000              1.0000000
 P   1
 1         1.5000000              1.0000000
 P   1
 1         0.3750000              1.0000000

C    6.0    1.7975445432 -1.0140570982 -6.5354952656
 S   6
 1      4563.240                  0.00196665
 2       682.0240                 0.0152306
 3       154.9730                 0.0761269
 4        44.45530                0.2608010
 5        13.02900                0.6164620
 6         1.827730               0.2210060
 S   3
 1        20.96420                0.114660 
 2         4.803310               0.919999 
 3         1.459330              -0.00303068 
 S   1
 1         0.4834560              1.000000  
 S   1
 1         0.1455850              1.000000  
 S   1
 1         0.0438000              1.0000000  
 P   3
 1        20.96420                0.0402487
 2         4.803310               0.237594
 3         1.459330               0.815854
 P   1
 1         0.4834560              1.000000
 P   1
 1         0.1455850              1.000000
 P   1
 1         0.0438000              1.0000000
 D   1
 1         1.2520000              1.0000000
 D   1
 1         0.3130000              1.0000000

C    6.0    1.7964596104 -2.4031127853 -6.3982764442
 S   6
 1      4563.240                  0.00196665
 2       682.0240                 0.0152306
 3       154.9730                 0.0761269
 4        44.45530                0.2608010
 5        13.02900                0.6164620
 6         1.827730               0.2210060
 S   3
 1        20.96420                0.114660 
 2         4.803310               0.919999 
 3         1.459330              -0.00303068 
 S   1
 1         0.4834560              1.000000  
 S   1
 1         0.1455850              1.000000  
 S   1
 1         0.0438000              1.0000000  
 P   3
 1        20.96420                0.0402487
 2         4.803310               0.237594
 3         1.459330               0.815854
 P   1
 1         0.4834560              1.000000
 P   1
 1         0.1455850              1.000000
 P   1
 1         0.0438000              1.0000000
 D   1
 1         1.2520000              1.0000000
 D   1
 1         0.3130000              1.0000000

H    1.0    2.0892168252 -3.0375023971 -7.2254523478
 S   3
 1        33.86500                0.0254938
 2         5.094790               0.190373
 3         1.158790               0.852161
 S   1
 1         0.325840               1.000000
 S   1
 1         0.102741               1.000000
 S   1
 1         0.0360000              1.0000000
 P   1
 1         1.5000000              1.0000000
 P   1
 1         0.3750000              1.0000000

H    1.0    1.4089758244 -4.0418988926 -5.0654029705
 S   3
 1        33.86500                0.0254938
 2         5.094790               0.190373
 3         1.158790               0.852161
 S   1
 1         0.325840               1.000000
 S   1
 1         0.102741               1.000000
 S   1
 1         0.0360000              1.0000000
 P   1
 1         1.5000000              1.0000000
 P   1
 1         0.3750000              1.0000000

C    6.0    1.4205274142 -2.9675425442 -5.1976048447
 S   6
 1      4563.240                  0.00196665
 2       682.0240                 0.0152306
 3       154.9730                 0.0761269
 4        44.45530                0.2608010
 5        13.02900                0.6164620
 6         1.827730               0.2210060
 S   3
 1        20.96420                0.114660 
 2         4.803310               0.919999 
 3         1.459330              -0.00303068 
 S   1
 1         0.4834560              1.000000  
 S   1
 1         0.1455850              1.000000  
 S   1
 1         0.0438000              1.0000000  
 P   3
 1        20.96420                0.0402487
 2         4.803310               0.237594
 3         1.459330               0.815854
 P   1
 1         0.4834560              1.000000
 P   1
 1         0.1455850              1.000000
 P   1
 1         0.0438000              1.0000000
 D   1
 1         1.2520000              1.0000000
 D   1
 1         0.3130000              1.0000000

 $end
