 $scf dirscf=.t. damp=.t. shift=.f.
   soscf=.f. diis=.t. fdiff=.f. extrap=.f. $end
 $system mwords=500 memddi=500 $end
 $intgrl schwrz=.t. intomp=1 shfock=.f. $end
 $guess guess=huckel $end
 $contrl scftyp=rhf runtyp=energy nprint=-5
     icharg=0 ispher=0 inttyp=eric 
     maxit=200 $end
 $end
 $data
2-pyrodixine_2_2-aminopyridine 
C1
O    8.0    -2.3144259385 -0.9439933541 0.9734964338
 S   6
 1      8588.500                  0.00189515
 2      1297.230                  0.0143859
 3       299.2960                 0.0707320
 4        87.37710                0.2400010
 5        25.67890                0.5947970
 6         3.740040               0.2808020
 S   3
 1        42.11750                0.113889          
 2         9.628370               0.920811         
 3         2.853320              -0.00327447      
 S   1
 1         0.905661               1.000000       
 S   1
 1         0.255611               1.000000      
 S   1
 1         0.0845000              1.0000000    
 P   3
 1        42.11750                0.0365114
 2         9.628370               0.237153
 3         2.853320               0.819702
 P   1
 1         0.905661               1.000000
 P   1
 1         0.255611               1.000000
 P   1
 1         0.0845000              1.0000000
 D   1
 1         2.5840000              1.0000000
 D   1
 1         0.6460000              1.0000000

N    7.0    -1.3160540813 0.6462559630 2.2707768243
 S   6
 1      6293.480                  0.00196979
 2       949.0440                 0.0149613
 3       218.7760                 0.0735006
 4        63.69160                0.2489370
 5        18.82820                0.6024600
 6         2.720230               0.2562020
 S   3
 1        30.63310                0.111906         
 2         7.026140               0.921666        
 3         2.112050              -0.00256919     
 S   1
 1         0.684009               1.000000      
 S   1
 1         0.200878               1.000000     
 S   1
 1         0.0639000              1.0000000   
 P   3
 1        30.63310                0.0383119
 2         7.026140               0.237403
 3         2.112050               0.817592
 P   1
 1         0.684009               1.000000
 P   1
 1         0.200878               1.000000
 P   1
 1         0.0639000              1.0000000
 D   1
 1         1.8260000              1.0000000
 D   1
 1         0.4565000              1.0000000

C    6.0    -3.3407190951 0.5180064510 4.0939863437
 S   6
 1      4563.240                  0.00196665
 2       682.0240                 0.0152306
 3       154.9730                 0.0761269
 4        44.45530                0.2608010
 5        13.02900                0.6164620
 6         1.827730               0.2210060
 S   3
 1        20.96420                0.114660 
 2         4.803310               0.919999 
 3         1.459330              -0.00303068 
 S   1
 1         0.4834560              1.000000  
 S   1
 1         0.1455850              1.000000  
 S   1
 1         0.0438000              1.0000000  
 P   3
 1        20.96420                0.0402487
 2         4.803310               0.237594
 3         1.459330               0.815854
 P   1
 1         0.4834560              1.000000
 P   1
 1         0.1455850              1.000000
 P   1
 1         0.0438000              1.0000000
 D   1
 1         1.2520000              1.0000000
 D   1
 1         0.3130000              1.0000000

C    6.0    -2.2584972356 1.4092529991 4.3043460782
 S   6
 1      4563.240                  0.00196665
 2       682.0240                 0.0152306
 3       154.9730                 0.0761269
 4        44.45530                0.2608010
 5        13.02900                0.6164620
 6         1.827730               0.2210060
 S   3
 1        20.96420                0.114660 
 2         4.803310               0.919999 
 3         1.459330              -0.00303068 
 S   1
 1         0.4834560              1.000000  
 S   1
 1         0.1455850              1.000000  
 S   1
 1         0.0438000              1.0000000  
 P   3
 1        20.96420                0.0402487
 2         4.803310               0.237594
 3         1.459330               0.815854
 P   1
 1         0.4834560              1.000000
 P   1
 1         0.1455850              1.000000
 P   1
 1         0.0438000              1.0000000
 D   1
 1         1.2520000              1.0000000
 D   1
 1         0.3130000              1.0000000

C    6.0    -1.2697306358 1.4391634763 3.3675998008
 S   6
 1      4563.240                  0.00196665
 2       682.0240                 0.0152306
 3       154.9730                 0.0761269
 4        44.45530                0.2608010
 5        13.02900                0.6164620
 6         1.827730               0.2210060
 S   3
 1        20.96420                0.114660 
 2         4.803310               0.919999 
 3         1.459330              -0.00303068 
 S   1
 1         0.4834560              1.000000  
 S   1
 1         0.1455850              1.000000  
 S   1
 1         0.0438000              1.0000000  
 P   3
 1        20.96420                0.0402487
 2         4.803310               0.237594
 3         1.459330               0.815854
 P   1
 1         0.4834560              1.000000
 P   1
 1         0.1455850              1.000000
 P   1
 1         0.0438000              1.0000000
 D   1
 1         1.2520000              1.0000000
 D   1
 1         0.3130000              1.0000000

C    6.0    -2.3441096545 -0.2511462795 1.9999082272
 S   6
 1      4563.240                  0.00196665
 2       682.0240                 0.0152306
 3       154.9730                 0.0761269
 4        44.45530                0.2608010
 5        13.02900                0.6164620
 6         1.827730               0.2210060
 S   3
 1        20.96420                0.114660 
 2         4.803310               0.919999 
 3         1.459330              -0.00303068 
 S   1
 1         0.4834560              1.000000  
 S   1
 1         0.1455850              1.000000  
 S   1
 1         0.0438000              1.0000000  
 P   3
 1        20.96420                0.0402487
 2         4.803310               0.237594
 3         1.459330               0.815854
 P   1
 1         0.4834560              1.000000
 P   1
 1         0.1455850              1.000000
 P   1
 1         0.0438000              1.0000000
 D   1
 1         1.2520000              1.0000000
 D   1
 1         0.3130000              1.0000000

C    6.0    -3.3893468627 -0.2814716493 2.9908586844
 S   6
 1      4563.240                  0.00196665
 2       682.0240                 0.0152306
 3       154.9730                 0.0761269
 4        44.45530                0.2608010
 5        13.02900                0.6164620
 6         1.827730               0.2210060
 S   3
 1        20.96420                0.114660 
 2         4.803310               0.919999 
 3         1.459330              -0.00303068 
 S   1
 1         0.4834560              1.000000  
 S   1
 1         0.1455850              1.000000  
 S   1
 1         0.0438000              1.0000000  
 P   3
 1        20.96420                0.0402487
 2         4.803310               0.237594
 3         1.459330               0.815854
 P   1
 1         0.4834560              1.000000
 P   1
 1         0.1455850              1.000000
 P   1
 1         0.0438000              1.0000000
 D   1
 1         1.2520000              1.0000000
 D   1
 1         0.3130000              1.0000000

H    1.0    -4.1402582847 0.4719646429 4.8229418226
 S   3
 1        33.86500                0.0254938
 2         5.094790               0.190373
 3         1.158790               0.852161
 S   1
 1         0.325840               1.000000
 S   1
 1         0.102741               1.000000
 S   1
 1         0.0360000              1.0000000
 P   1
 1         1.5000000              1.0000000
 P   1
 1         0.3750000              1.0000000

H    1.0    -2.2095311165 2.0452532851 5.1740747809
 S   3
 1        33.86500                0.0254938
 2         5.094790               0.190373
 3         1.158790               0.852161
 S   1
 1         0.325840               1.000000
 S   1
 1         0.102741               1.000000
 S   1
 1         0.0360000              1.0000000
 P   1
 1         1.5000000              1.0000000
 P   1
 1         0.3750000              1.0000000

H    1.0    -0.4058074344 2.0846317395 3.4434933208
 S   3
 1        33.86500                0.0254938
 2         5.094790               0.190373
 3         1.158790               0.852161
 S   1
 1         0.325840               1.000000
 S   1
 1         0.102741               1.000000
 S   1
 1         0.0360000              1.0000000
 P   1
 1         1.5000000              1.0000000
 P   1
 1         0.3750000              1.0000000

H    1.0    -4.2029765513 -0.9683828871 2.8116423477
 S   3
 1        33.86500                0.0254938
 2         5.094790               0.190373
 3         1.158790               0.852161
 S   1
 1         0.325840               1.000000
 S   1
 1         0.102741               1.000000
 S   1
 1         0.0360000              1.0000000
 P   1
 1         1.5000000              1.0000000
 P   1
 1         0.3750000              1.0000000

H    1.0    -0.5469698757 0.6926935130 1.5730060245
 S   3
 1        33.86500                0.0254938
 2         5.094790               0.190373
 3         1.158790               0.852161
 S   1
 1         0.325840               1.000000
 S   1
 1         0.102741               1.000000
 S   1
 1         0.0360000              1.0000000
 P   1
 1         1.5000000              1.0000000
 P   1
 1         0.3750000              1.0000000

N    7.0    0.8436625273 0.7700727471 0.3481959448
 S   6
 1      6293.480                  0.00196979
 2       949.0440                 0.0149613
 3       218.7760                 0.0735006
 4        63.69160                0.2489370
 5        18.82820                0.6024600
 6         2.720230               0.2562020
 S   3
 1        30.63310                0.111906         
 2         7.026140               0.921666        
 3         2.112050              -0.00256919     
 S   1
 1         0.684009               1.000000      
 S   1
 1         0.200878               1.000000     
 S   1
 1         0.0639000              1.0000000   
 P   3
 1        30.63310                0.0383119
 2         7.026140               0.237403
 3         2.112050               0.817592
 P   1
 1         0.684009               1.000000
 P   1
 1         0.200878               1.000000
 P   1
 1         0.0639000              1.0000000
 D   1
 1         1.8260000              1.0000000
 D   1
 1         0.4565000              1.0000000

C    6.0    0.8447980023 -0.0055277407 -0.7502355154
 S   6
 1      4563.240                  0.00196665
 2       682.0240                 0.0152306
 3       154.9730                 0.0761269
 4        44.45530                0.2608010
 5        13.02900                0.6164620
 6         1.827730               0.2210060
 S   3
 1        20.96420                0.114660 
 2         4.803310               0.919999 
 3         1.459330              -0.00303068 
 S   1
 1         0.4834560              1.000000  
 S   1
 1         0.1455850              1.000000  
 S   1
 1         0.0438000              1.0000000  
 P   3
 1        20.96420                0.0402487
 2         4.803310               0.237594
 3         1.459330               0.815854
 P   1
 1         0.4834560              1.000000
 P   1
 1         0.1455850              1.000000
 P   1
 1         0.0438000              1.0000000
 D   1
 1         1.2520000              1.0000000
 D   1
 1         0.3130000              1.0000000

C    6.0    1.9492132912 -0.0326360610 -1.6306286112
 S   6
 1      4563.240                  0.00196665
 2       682.0240                 0.0152306
 3       154.9730                 0.0761269
 4        44.45530                0.2608010
 5        13.02900                0.6164620
 6         1.827730               0.2210060
 S   3
 1        20.96420                0.114660 
 2         4.803310               0.919999 
 3         1.459330              -0.00303068 
 S   1
 1         0.4834560              1.000000  
 S   1
 1         0.1455850              1.000000  
 S   1
 1         0.0438000              1.0000000  
 P   3
 1        20.96420                0.0402487
 2         4.803310               0.237594
 3         1.459330               0.815854
 P   1
 1         0.4834560              1.000000
 P   1
 1         0.1455850              1.000000
 P   1
 1         0.0438000              1.0000000
 D   1
 1         1.2520000              1.0000000
 D   1
 1         0.3130000              1.0000000

C    6.0    3.0422550103 0.7546349859 -1.3502192955
 S   6
 1      4563.240                  0.00196665
 2       682.0240                 0.0152306
 3       154.9730                 0.0761269
 4        44.45530                0.2608010
 5        13.02900                0.6164620
 6         1.827730               0.2210060
 S   3
 1        20.96420                0.114660 
 2         4.803310               0.919999 
 3         1.459330              -0.00303068 
 S   1
 1         0.4834560              1.000000  
 S   1
 1         0.1455850              1.000000  
 S   1
 1         0.0438000              1.0000000  
 P   3
 1        20.96420                0.0402487
 2         4.803310               0.237594
 3         1.459330               0.815854
 P   1
 1         0.4834560              1.000000
 P   1
 1         0.1455850              1.000000
 P   1
 1         0.0438000              1.0000000
 D   1
 1         1.2520000              1.0000000
 D   1
 1         0.3130000              1.0000000

C    6.0    3.0419169378 1.5628306870 -0.2081639727
 S   6
 1      4563.240                  0.00196665
 2       682.0240                 0.0152306
 3       154.9730                 0.0761269
 4        44.45530                0.2608010
 5        13.02900                0.6164620
 6         1.827730               0.2210060
 S   3
 1        20.96420                0.114660 
 2         4.803310               0.919999 
 3         1.459330              -0.00303068 
 S   1
 1         0.4834560              1.000000  
 S   1
 1         0.1455850              1.000000  
 S   1
 1         0.0438000              1.0000000  
 P   3
 1        20.96420                0.0402487
 2         4.803310               0.237594
 3         1.459330               0.815854
 P   1
 1         0.4834560              1.000000
 P   1
 1         0.1455850              1.000000
 P   1
 1         0.0438000              1.0000000
 D   1
 1         1.2520000              1.0000000
 D   1
 1         0.3130000              1.0000000

C    6.0    1.9206340896 1.5268810103 0.5966751171
 S   6
 1      4563.240                  0.00196665
 2       682.0240                 0.0152306
 3       154.9730                 0.0761269
 4        44.45530                0.2608010
 5        13.02900                0.6164620
 6         1.827730               0.2210060
 S   3
 1        20.96420                0.114660 
 2         4.803310               0.919999 
 3         1.459330              -0.00303068 
 S   1
 1         0.4834560              1.000000  
 S   1
 1         0.1455850              1.000000  
 S   1
 1         0.0438000              1.0000000  
 P   3
 1        20.96420                0.0402487
 2         4.803310               0.237594
 3         1.459330               0.815854
 P   1
 1         0.4834560              1.000000
 P   1
 1         0.1455850              1.000000
 P   1
 1         0.0438000              1.0000000
 D   1
 1         1.2520000              1.0000000
 D   1
 1         0.3130000              1.0000000

H    1.0    1.9095405807 -0.6671120397 -2.5058015359
 S   3
 1        33.86500                0.0254938
 2         5.094790               0.190373
 3         1.158790               0.852161
 S   1
 1         0.325840               1.000000
 S   1
 1         0.102741               1.000000
 S   1
 1         0.0360000              1.0000000
 P   1
 1         1.5000000              1.0000000
 P   1
 1         0.3750000              1.0000000

H    1.0    3.8982200520 0.7455516158 -2.0125667982
 S   3
 1        33.86500                0.0254938
 2         5.094790               0.190373
 3         1.158790               0.852161
 S   1
 1         0.325840               1.000000
 S   1
 1         0.102741               1.000000
 S   1
 1         0.0360000              1.0000000
 P   1
 1         1.5000000              1.0000000
 P   1
 1         0.3750000              1.0000000

H    1.0    3.8829253058 2.1918137495 0.0437952529
 S   3
 1        33.86500                0.0254938
 2         5.094790               0.190373
 3         1.158790               0.852161
 S   1
 1         0.325840               1.000000
 S   1
 1         0.102741               1.000000
 S   1
 1         0.0360000              1.0000000
 P   1
 1         1.5000000              1.0000000
 P   1
 1         0.3750000              1.0000000

H    1.0    1.8729363896 2.1331492109 1.4948047103
 S   3
 1        33.86500                0.0254938
 2         5.094790               0.190373
 3         1.158790               0.852161
 S   1
 1         0.325840               1.000000
 S   1
 1         0.102741               1.000000
 S   1
 1         0.0360000              1.0000000
 P   1
 1         1.5000000              1.0000000
 P   1
 1         0.3750000              1.0000000

N    7.0    -0.2761898033 -0.7377999045 -1.0190815481
 S   6
 1      6293.480                  0.00196979
 2       949.0440                 0.0149613
 3       218.7760                 0.0735006
 4        63.69160                0.2489370
 5        18.82820                0.6024600
 6         2.720230               0.2562020
 S   3
 1        30.63310                0.111906         
 2         7.026140               0.921666        
 3         2.112050              -0.00256919     
 S   1
 1         0.684009               1.000000      
 S   1
 1         0.200878               1.000000     
 S   1
 1         0.0639000              1.0000000   
 P   3
 1        30.63310                0.0383119
 2         7.026140               0.237403
 3         2.112050               0.817592
 P   1
 1         0.684009               1.000000
 P   1
 1         0.200878               1.000000
 P   1
 1         0.0639000              1.0000000
 D   1
 1         1.8260000              1.0000000
 D   1
 1         0.4565000              1.0000000

H    1.0    -0.1727014830 -1.4814500443 -1.6991805664
 S   3
 1        33.86500                0.0254938
 2         5.094790               0.190373
 3         1.158790               0.852161
 S   1
 1         0.325840               1.000000
 S   1
 1         0.102741               1.000000
 S   1
 1         0.0360000              1.0000000
 P   1
 1         1.5000000              1.0000000
 P   1
 1         0.3750000              1.0000000

H    1.0    -0.9665156246 -0.8699903287 -0.2753939967
 S   3
 1        33.86500                0.0254938
 2         5.094790               0.190373
 3         1.158790               0.852161
 S   1
 1         0.325840               1.000000
 S   1
 1         0.102741               1.000000
 S   1
 1         0.0360000              1.0000000
 P   1
 1         1.5000000              1.0000000
 P   1
 1         0.3750000              1.0000000

C    6.0    -1.5652727365 -1.3728645048 -5.6502891628
 S   6
 1      4563.240                  0.00196665
 2       682.0240                 0.0152306
 3       154.9730                 0.0761269
 4        44.45530                0.2608010
 5        13.02900                0.6164620
 6         1.827730               0.2210060
 S   3
 1        20.96420                0.114660 
 2         4.803310               0.919999 
 3         1.459330              -0.00303068 
 S   1
 1         0.4834560              1.000000  
 S   1
 1         0.1455850              1.000000  
 S   1
 1         0.0438000              1.0000000  
 P   3
 1        20.96420                0.0402487
 2         4.803310               0.237594
 3         1.459330               0.815854
 P   1
 1         0.4834560              1.000000
 P   1
 1         0.1455850              1.000000
 P   1
 1         0.0438000              1.0000000
 D   1
 1         1.2520000              1.0000000
 D   1
 1         0.3130000              1.0000000

C    6.0    -2.5144923136 -0.5362180417 -6.1575269959
 S   6
 1      4563.240                  0.00196665
 2       682.0240                 0.0152306
 3       154.9730                 0.0761269
 4        44.45530                0.2608010
 5        13.02900                0.6164620
 6         1.827730               0.2210060
 S   3
 1        20.96420                0.114660 
 2         4.803310               0.919999 
 3         1.459330              -0.00303068 
 S   1
 1         0.4834560              1.000000  
 S   1
 1         0.1455850              1.000000  
 S   1
 1         0.0438000              1.0000000  
 P   3
 1        20.96420                0.0402487
 2         4.803310               0.237594
 3         1.459330               0.815854
 P   1
 1         0.4834560              1.000000
 P   1
 1         0.1455850              1.000000
 P   1
 1         0.0438000              1.0000000
 D   1
 1         1.2520000              1.0000000
 D   1
 1         0.3130000              1.0000000

H    1.0    -2.8822467224 -0.6943547561 -7.1637845704
 S   3
 1        33.86500                0.0254938
 2         5.094790               0.190373
 3         1.158790               0.852161
 S   1
 1         0.325840               1.000000
 S   1
 1         0.102741               1.000000
 S   1
 1         0.0360000              1.0000000
 P   1
 1         1.5000000              1.0000000
 P   1
 1         0.3750000              1.0000000

H    1.0    -1.1619813027 -2.1973391840 -6.2191890488
 S   3
 1        33.86500                0.0254938
 2         5.094790               0.190373
 3         1.158790               0.852161
 S   1
 1         0.325840               1.000000
 S   1
 1         0.102741               1.000000
 S   1
 1         0.0360000              1.0000000
 P   1
 1         1.5000000              1.0000000
 P   1
 1         0.3750000              1.0000000

C    6.0    -3.0365081922 0.5385007040 -5.3923418706
 S   6
 1      4563.240                  0.00196665
 2       682.0240                 0.0152306
 3       154.9730                 0.0761269
 4        44.45530                0.2608010
 5        13.02900                0.6164620
 6         1.827730               0.2210060
 S   3
 1        20.96420                0.114660 
 2         4.803310               0.919999 
 3         1.459330              -0.00303068 
 S   1
 1         0.4834560              1.000000  
 S   1
 1         0.1455850              1.000000  
 S   1
 1         0.0438000              1.0000000  
 P   3
 1        20.96420                0.0402487
 2         4.803310               0.237594
 3         1.459330               0.815854
 P   1
 1         0.4834560              1.000000
 P   1
 1         0.1455850              1.000000
 P   1
 1         0.0438000              1.0000000
 D   1
 1         1.2520000              1.0000000
 D   1
 1         0.3130000              1.0000000

H    1.0    -3.7885118986 1.2030079665 -5.7873721230
 S   3
 1        33.86500                0.0254938
 2         5.094790               0.190373
 3         1.158790               0.852161
 S   1
 1         0.325840               1.000000
 S   1
 1         0.102741               1.000000
 S   1
 1         0.0360000              1.0000000
 P   1
 1         1.5000000              1.0000000
 P   1
 1         0.3750000              1.0000000

C    6.0    -2.5635952824 0.7076192230 -4.1280998199
 S   6
 1      4563.240                  0.00196665
 2       682.0240                 0.0152306
 3       154.9730                 0.0761269
 4        44.45530                0.2608010
 5        13.02900                0.6164620
 6         1.827730               0.2210060
 S   3
 1        20.96420                0.114660 
 2         4.803310               0.919999 
 3         1.459330              -0.00303068 
 S   1
 1         0.4834560              1.000000  
 S   1
 1         0.1455850              1.000000  
 S   1
 1         0.0438000              1.0000000  
 P   3
 1        20.96420                0.0402487
 2         4.803310               0.237594
 3         1.459330               0.815854
 P   1
 1         0.4834560              1.000000
 P   1
 1         0.1455850              1.000000
 P   1
 1         0.0438000              1.0000000
 D   1
 1         1.2520000              1.0000000
 D   1
 1         0.3130000              1.0000000

H    1.0    -2.9060610067 1.4907389960 -3.4667936409
 S   3
 1        33.86500                0.0254938
 2         5.094790               0.190373
 3         1.158790               0.852161
 S   1
 1         0.325840               1.000000
 S   1
 1         0.102741               1.000000
 S   1
 1         0.0360000              1.0000000
 P   1
 1         1.5000000              1.0000000
 P   1
 1         0.3750000              1.0000000

N    7.0    -1.6177956146 -0.1227356937 -3.6247788650
 S   6
 1      6293.480                  0.00196979
 2       949.0440                 0.0149613
 3       218.7760                 0.0735006
 4        63.69160                0.2489370
 5        18.82820                0.6024600
 6         2.720230               0.2562020
 S   3
 1        30.63310                0.111906         
 2         7.026140               0.921666        
 3         2.112050              -0.00256919     
 S   1
 1         0.684009               1.000000      
 S   1
 1         0.200878               1.000000     
 S   1
 1         0.0639000              1.0000000   
 P   3
 1        30.63310                0.0383119
 2         7.026140               0.237403
 3         2.112050               0.817592
 P   1
 1         0.684009               1.000000
 P   1
 1         0.200878               1.000000
 P   1
 1         0.0639000              1.0000000
 D   1
 1         1.8260000              1.0000000
 D   1
 1         0.4565000              1.0000000

H    1.0    -1.2904533196 -0.0106083727 -2.6642107036
 S   3
 1        33.86500                0.0254938
 2         5.094790               0.190373
 3         1.158790               0.852161
 S   1
 1         0.325840               1.000000
 S   1
 1         0.102741               1.000000
 S   1
 1         0.0360000              1.0000000
 P   1
 1         1.5000000              1.0000000
 P   1
 1         0.3750000              1.0000000

C    6.0    -1.0515739848 -1.2009707460 -4.3133104640
 S   6
 1      4563.240                  0.00196665
 2       682.0240                 0.0152306
 3       154.9730                 0.0761269
 4        44.45530                0.2608010
 5        13.02900                0.6164620
 6         1.827730               0.2210060
 S   3
 1        20.96420                0.114660 
 2         4.803310               0.919999 
 3         1.459330              -0.00303068 
 S   1
 1         0.4834560              1.000000  
 S   1
 1         0.1455850              1.000000  
 S   1
 1         0.0438000              1.0000000  
 P   3
 1        20.96420                0.0402487
 2         4.803310               0.237594
 3         1.459330               0.815854
 P   1
 1         0.4834560              1.000000
 P   1
 1         0.1455850              1.000000
 P   1
 1         0.0438000              1.0000000
 D   1
 1         1.2520000              1.0000000
 D   1
 1         0.3130000              1.0000000

O    8.0    -0.1956886034 -1.9027018610 -3.7663169917
 S   6
 1      8588.500                  0.00189515
 2      1297.230                  0.0143859
 3       299.2960                 0.0707320
 4        87.37710                0.2400010
 5        25.67890                0.5947970
 6         3.740040               0.2808020
 S   3
 1        42.11750                0.113889          
 2         9.628370               0.920811         
 3         2.853320              -0.00327447      
 S   1
 1         0.905661               1.000000       
 S   1
 1         0.255611               1.000000      
 S   1
 1         0.0845000              1.0000000    
 P   3
 1        42.11750                0.0365114
 2         9.628370               0.237153
 3         2.853320               0.819702
 P   1
 1         0.905661               1.000000
 P   1
 1         0.255611               1.000000
 P   1
 1         0.0845000              1.0000000
 D   1
 1         2.5840000              1.0000000
 D   1
 1         0.6460000              1.0000000

 $end
