 $scf dirscf=.t. damp=.t. shift=.f.
   soscf=.f. diis=.t. fdiff=.f. extrap=.f. $end
 $system mwords=500 memddi=500 $end
 $intgrl schwrz=.t. intomp=1 shfock=.f. $end
 $guess guess=huckel $end
 $contrl scftyp=rhf runtyp=energy nprint=-5
     icharg=0 ispher=0 inttyp=eric 
     maxit=200 $end
 $end
 $data
adenine_thymine_2 
C1
N    7.0    -0.5351467566 1.6892532121 1.1619896961
 S   6
 1      6293.480                  0.00196979
 2       949.0440                 0.0149613
 3       218.7760                 0.0735006
 4        63.69160                0.2489370
 5        18.82820                0.6024600
 6         2.720230               0.2562020
 S   3
 1        30.63310                0.111906         
 2         7.026140               0.921666        
 3         2.112050              -0.00256919     
 S   1
 1         0.684009               1.000000      
 S   1
 1         0.200878               1.000000     
 S   1
 1         0.0639000              1.0000000   
 P   3
 1        30.63310                0.0383119
 2         7.026140               0.237403
 3         2.112050               0.817592
 P   1
 1         0.684009               1.000000
 P   1
 1         0.200878               1.000000
 P   1
 1         0.0639000              1.0000000
 D   1
 1         1.8260000              1.0000000
 D   1
 1         0.4565000              1.0000000

C    6.0    -0.8216207750 0.7701095970 0.2045668840
 S   6
 1      4563.240                  0.00196665
 2       682.0240                 0.0152306
 3       154.9730                 0.0761269
 4        44.45530                0.2608010
 5        13.02900                0.6164620
 6         1.827730               0.2210060
 S   3
 1        20.96420                0.114660 
 2         4.803310               0.919999 
 3         1.459330              -0.00303068 
 S   1
 1         0.4834560              1.000000  
 S   1
 1         0.1455850              1.000000  
 S   1
 1         0.0438000              1.0000000  
 P   3
 1        20.96420                0.0402487
 2         4.803310               0.237594
 3         1.459330               0.815854
 P   1
 1         0.4834560              1.000000
 P   1
 1         0.1455850              1.000000
 P   1
 1         0.0438000              1.0000000
 D   1
 1         1.2520000              1.0000000
 D   1
 1         0.3130000              1.0000000

H    1.0    -1.0918843459 1.0473442403 -0.7924292933
 S   3
 1        33.86500                0.0254938
 2         5.094790               0.190373
 3         1.158790               0.852161
 S   1
 1         0.325840               1.000000
 S   1
 1         0.102741               1.000000
 S   1
 1         0.0360000              1.0000000
 P   1
 1         1.5000000              1.0000000
 P   1
 1         0.3750000              1.0000000

N    7.0    -0.7265455354 -0.4447905548 0.6167768061
 S   6
 1      6293.480                  0.00196979
 2       949.0440                 0.0149613
 3       218.7760                 0.0735006
 4        63.69160                0.2489370
 5        18.82820                0.6024600
 6         2.720230               0.2562020
 S   3
 1        30.63310                0.111906         
 2         7.026140               0.921666        
 3         2.112050              -0.00256919     
 S   1
 1         0.684009               1.000000      
 S   1
 1         0.200878               1.000000     
 S   1
 1         0.0639000              1.0000000   
 P   3
 1        30.63310                0.0383119
 2         7.026140               0.237403
 3         2.112050               0.817592
 P   1
 1         0.684009               1.000000
 P   1
 1         0.200878               1.000000
 P   1
 1         0.0639000              1.0000000
 D   1
 1         1.8260000              1.0000000
 D   1
 1         0.4565000              1.0000000

C    6.0    -0.3535948828 -0.3301188535 1.9418560804
 S   6
 1      4563.240                  0.00196665
 2       682.0240                 0.0152306
 3       154.9730                 0.0761269
 4        44.45530                0.2608010
 5        13.02900                0.6164620
 6         1.827730               0.2210060
 S   3
 1        20.96420                0.114660 
 2         4.803310               0.919999 
 3         1.459330              -0.00303068 
 S   1
 1         0.4834560              1.000000  
 S   1
 1         0.1455850              1.000000  
 S   1
 1         0.0438000              1.0000000  
 P   3
 1        20.96420                0.0402487
 2         4.803310               0.237594
 3         1.459330               0.815854
 P   1
 1         0.4834560              1.000000
 P   1
 1         0.1455850              1.000000
 P   1
 1         0.0438000              1.0000000
 D   1
 1         1.2520000              1.0000000
 D   1
 1         0.3130000              1.0000000

C    6.0    -0.1031775154 -1.2577002456 2.9506256526
 S   6
 1      4563.240                  0.00196665
 2       682.0240                 0.0152306
 3       154.9730                 0.0761269
 4        44.45530                0.2608010
 5        13.02900                0.6164620
 6         1.827730               0.2210060
 S   3
 1        20.96420                0.114660 
 2         4.803310               0.919999 
 3         1.459330              -0.00303068 
 S   1
 1         0.4834560              1.000000  
 S   1
 1         0.1455850              1.000000  
 S   1
 1         0.0438000              1.0000000  
 P   3
 1        20.96420                0.0402487
 2         4.803310               0.237594
 3         1.459330               0.815854
 P   1
 1         0.4834560              1.000000
 P   1
 1         0.1455850              1.000000
 P   1
 1         0.0438000              1.0000000
 D   1
 1         1.2520000              1.0000000
 D   1
 1         0.3130000              1.0000000

N    7.0    -0.1821157828 -2.5869737026 2.7512134206
 S   6
 1      6293.480                  0.00196979
 2       949.0440                 0.0149613
 3       218.7760                 0.0735006
 4        63.69160                0.2489370
 5        18.82820                0.6024600
 6         2.720230               0.2562020
 S   3
 1        30.63310                0.111906         
 2         7.026140               0.921666        
 3         2.112050              -0.00256919     
 S   1
 1         0.684009               1.000000      
 S   1
 1         0.200878               1.000000     
 S   1
 1         0.0639000              1.0000000   
 P   3
 1        30.63310                0.0383119
 2         7.026140               0.237403
 3         2.112050               0.817592
 P   1
 1         0.684009               1.000000
 P   1
 1         0.200878               1.000000
 P   1
 1         0.0639000              1.0000000
 D   1
 1         1.8260000              1.0000000
 D   1
 1         0.4565000              1.0000000

H    1.0    -0.1602656462 -3.1696866719 3.5527346402
 S   3
 1        33.86500                0.0254938
 2         5.094790               0.190373
 3         1.158790               0.852161
 S   1
 1         0.325840               1.000000
 S   1
 1         0.102741               1.000000
 S   1
 1         0.0360000              1.0000000
 P   1
 1         1.5000000              1.0000000
 P   1
 1         0.3750000              1.0000000

H    1.0    -0.6676857413 -2.9163416337 1.9535880904
 S   3
 1        33.86500                0.0254938
 2         5.094790               0.190373
 3         1.158790               0.852161
 S   1
 1         0.325840               1.000000
 S   1
 1         0.102741               1.000000
 S   1
 1         0.0360000              1.0000000
 P   1
 1         1.5000000              1.0000000
 P   1
 1         0.3750000              1.0000000

N    7.0    0.2484063743 -0.8133852826 4.1484123138
 S   6
 1      6293.480                  0.00196979
 2       949.0440                 0.0149613
 3       218.7760                 0.0735006
 4        63.69160                0.2489370
 5        18.82820                0.6024600
 6         2.720230               0.2562020
 S   3
 1        30.63310                0.111906         
 2         7.026140               0.921666        
 3         2.112050              -0.00256919     
 S   1
 1         0.684009               1.000000      
 S   1
 1         0.200878               1.000000     
 S   1
 1         0.0639000              1.0000000   
 P   3
 1        30.63310                0.0383119
 2         7.026140               0.237403
 3         2.112050               0.817592
 P   1
 1         0.684009               1.000000
 P   1
 1         0.200878               1.000000
 P   1
 1         0.0639000              1.0000000
 D   1
 1         1.8260000              1.0000000
 D   1
 1         0.4565000              1.0000000

C    6.0    0.3448551136 0.4892332017 4.3384625323
 S   6
 1      4563.240                  0.00196665
 2       682.0240                 0.0152306
 3       154.9730                 0.0761269
 4        44.45530                0.2608010
 5        13.02900                0.6164620
 6         1.827730               0.2210060
 S   3
 1        20.96420                0.114660 
 2         4.803310               0.919999 
 3         1.459330              -0.00303068 
 S   1
 1         0.4834560              1.000000  
 S   1
 1         0.1455850              1.000000  
 S   1
 1         0.0438000              1.0000000  
 P   3
 1        20.96420                0.0402487
 2         4.803310               0.237594
 3         1.459330               0.815854
 P   1
 1         0.4834560              1.000000
 P   1
 1         0.1455850              1.000000
 P   1
 1         0.0438000              1.0000000
 D   1
 1         1.2520000              1.0000000
 D   1
 1         0.3130000              1.0000000

H    1.0    0.6365176330 0.7889022976 5.3274604306
 S   3
 1        33.86500                0.0254938
 2         5.094790               0.190373
 3         1.158790               0.852161
 S   1
 1         0.325840               1.000000
 S   1
 1         0.102741               1.000000
 S   1
 1         0.0360000              1.0000000
 P   1
 1         1.5000000              1.0000000
 P   1
 1         0.3750000              1.0000000

N    7.0    0.1263751728 1.4563024337 3.4793030675
 S   6
 1      6293.480                  0.00196979
 2       949.0440                 0.0149613
 3       218.7760                 0.0735006
 4        63.69160                0.2489370
 5        18.82820                0.6024600
 6         2.720230               0.2562020
 S   3
 1        30.63310                0.111906         
 2         7.026140               0.921666        
 3         2.112050              -0.00256919     
 S   1
 1         0.684009               1.000000      
 S   1
 1         0.200878               1.000000     
 S   1
 1         0.0639000              1.0000000   
 P   3
 1        30.63310                0.0383119
 2         7.026140               0.237403
 3         2.112050               0.817592
 P   1
 1         0.684009               1.000000
 P   1
 1         0.200878               1.000000
 P   1
 1         0.0639000              1.0000000
 D   1
 1         1.8260000              1.0000000
 D   1
 1         0.4565000              1.0000000

C    6.0    -0.2286165484 0.9942751077 2.2833558600
 S   6
 1      4563.240                  0.00196665
 2       682.0240                 0.0152306
 3       154.9730                 0.0761269
 4        44.45530                0.2608010
 5        13.02900                0.6164620
 6         1.827730               0.2210060
 S   3
 1        20.96420                0.114660 
 2         4.803310               0.919999 
 3         1.459330              -0.00303068 
 S   1
 1         0.4834560              1.000000  
 S   1
 1         0.1455850              1.000000  
 S   1
 1         0.0438000              1.0000000  
 P   3
 1        20.96420                0.0402487
 2         4.803310               0.237594
 3         1.459330               0.815854
 P   1
 1         0.4834560              1.000000
 P   1
 1         0.1455850              1.000000
 P   1
 1         0.0438000              1.0000000
 D   1
 1         1.2520000              1.0000000
 D   1
 1         0.3130000              1.0000000

H    1.0    -0.5197540381 2.6863400449 1.0724100490
 S   3
 1        33.86500                0.0254938
 2         5.094790               0.190373
 3         1.158790               0.852161
 S   1
 1         0.325840               1.000000
 S   1
 1         0.102741               1.000000
 S   1
 1         0.0360000              1.0000000
 P   1
 1         1.5000000              1.0000000
 P   1
 1         0.3750000              1.0000000

N    7.0    -0.4989638159 -1.9980431838 -1.9677308852
 S   6
 1      6293.480                  0.00196979
 2       949.0440                 0.0149613
 3       218.7760                 0.0735006
 4        63.69160                0.2489370
 5        18.82820                0.6024600
 6         2.720230               0.2562020
 S   3
 1        30.63310                0.111906         
 2         7.026140               0.921666        
 3         2.112050              -0.00256919     
 S   1
 1         0.684009               1.000000      
 S   1
 1         0.200878               1.000000     
 S   1
 1         0.0639000              1.0000000   
 P   3
 1        30.63310                0.0383119
 2         7.026140               0.237403
 3         2.112050               0.817592
 P   1
 1         0.684009               1.000000
 P   1
 1         0.200878               1.000000
 P   1
 1         0.0639000              1.0000000
 D   1
 1         1.8260000              1.0000000
 D   1
 1         0.4565000              1.0000000

C    6.0    0.0656029561 -3.2341397863 -2.1420531963
 S   6
 1      4563.240                  0.00196665
 2       682.0240                 0.0152306
 3       154.9730                 0.0761269
 4        44.45530                0.2608010
 5        13.02900                0.6164620
 6         1.827730               0.2210060
 S   3
 1        20.96420                0.114660 
 2         4.803310               0.919999 
 3         1.459330              -0.00303068 
 S   1
 1         0.4834560              1.000000  
 S   1
 1         0.1455850              1.000000  
 S   1
 1         0.0438000              1.0000000  
 P   3
 1        20.96420                0.0402487
 2         4.803310               0.237594
 3         1.459330               0.815854
 P   1
 1         0.4834560              1.000000
 P   1
 1         0.1455850              1.000000
 P   1
 1         0.0438000              1.0000000
 D   1
 1         1.2520000              1.0000000
 D   1
 1         0.3130000              1.0000000

H    1.0    0.3826218970 -3.7111776726 -1.2356692003
 S   3
 1        33.86500                0.0254938
 2         5.094790               0.190373
 3         1.158790               0.852161
 S   1
 1         0.325840               1.000000
 S   1
 1         0.102741               1.000000
 S   1
 1         0.0360000              1.0000000
 P   1
 1         1.5000000              1.0000000
 P   1
 1         0.3750000              1.0000000

C    6.0    0.2206417097 -3.8104478658 -3.3275080193
 S   6
 1      4563.240                  0.00196665
 2       682.0240                 0.0152306
 3       154.9730                 0.0761269
 4        44.45530                0.2608010
 5        13.02900                0.6164620
 6         1.827730               0.2210060
 S   3
 1        20.96420                0.114660 
 2         4.803310               0.919999 
 3         1.459330              -0.00303068 
 S   1
 1         0.4834560              1.000000  
 S   1
 1         0.1455850              1.000000  
 S   1
 1         0.0438000              1.0000000  
 P   3
 1        20.96420                0.0402487
 2         4.803310               0.237594
 3         1.459330               0.815854
 P   1
 1         0.4834560              1.000000
 P   1
 1         0.1455850              1.000000
 P   1
 1         0.0438000              1.0000000
 D   1
 1         1.2520000              1.0000000
 D   1
 1         0.3130000              1.0000000

C    6.0    0.8383239947 -5.1586363562 -3.5454938186
 S   6
 1      4563.240                  0.00196665
 2       682.0240                 0.0152306
 3       154.9730                 0.0761269
 4        44.45530                0.2608010
 5        13.02900                0.6164620
 6         1.827730               0.2210060
 S   3
 1        20.96420                0.114660 
 2         4.803310               0.919999 
 3         1.459330              -0.00303068 
 S   1
 1         0.4834560              1.000000  
 S   1
 1         0.1455850              1.000000  
 S   1
 1         0.0438000              1.0000000  
 P   3
 1        20.96420                0.0402487
 2         4.803310               0.237594
 3         1.459330               0.815854
 P   1
 1         0.4834560              1.000000
 P   1
 1         0.1455850              1.000000
 P   1
 1         0.0438000              1.0000000
 D   1
 1         1.2520000              1.0000000
 D   1
 1         0.3130000              1.0000000

H    1.0    0.1424979182 -5.8226507505 -4.0420103575
 S   3
 1        33.86500                0.0254938
 2         5.094790               0.190373
 3         1.158790               0.852161
 S   1
 1         0.325840               1.000000
 S   1
 1         0.102741               1.000000
 S   1
 1         0.0360000              1.0000000
 P   1
 1         1.5000000              1.0000000
 P   1
 1         0.3750000              1.0000000

H    1.0    1.7121189125 -5.0807516741 -4.1799308577
 S   3
 1        33.86500                0.0254938
 2         5.094790               0.190373
 3         1.158790               0.852161
 S   1
 1         0.325840               1.000000
 S   1
 1         0.102741               1.000000
 S   1
 1         0.0360000              1.0000000
 P   1
 1         1.5000000              1.0000000
 P   1
 1         0.3750000              1.0000000

H    1.0    1.1326049602 -5.6041109768 -2.6039683401
 S   3
 1        33.86500                0.0254938
 2         5.094790               0.190373
 3         1.158790               0.852161
 S   1
 1         0.325840               1.000000
 S   1
 1         0.102741               1.000000
 S   1
 1         0.0360000              1.0000000
 P   1
 1         1.5000000              1.0000000
 P   1
 1         0.3750000              1.0000000

C    6.0    -0.2437031935 -3.0657731399 -4.5024230732
 S   6
 1      4563.240                  0.00196665
 2       682.0240                 0.0152306
 3       154.9730                 0.0761269
 4        44.45530                0.2608010
 5        13.02900                0.6164620
 6         1.827730               0.2210060
 S   3
 1        20.96420                0.114660 
 2         4.803310               0.919999 
 3         1.459330              -0.00303068 
 S   1
 1         0.4834560              1.000000  
 S   1
 1         0.1455850              1.000000  
 S   1
 1         0.0438000              1.0000000  
 P   3
 1        20.96420                0.0402487
 2         4.803310               0.237594
 3         1.459330               0.815854
 P   1
 1         0.4834560              1.000000
 P   1
 1         0.1455850              1.000000
 P   1
 1         0.0438000              1.0000000
 D   1
 1         1.2520000              1.0000000
 D   1
 1         0.3130000              1.0000000

O    8.0    -0.1749052055 -3.4590317417 -5.6250820025
 S   6
 1      8588.500                  0.00189515
 2      1297.230                  0.0143859
 3       299.2960                 0.0707320
 4        87.37710                0.2400010
 5        25.67890                0.5947970
 6         3.740040               0.2808020
 S   3
 1        42.11750                0.113889          
 2         9.628370               0.920811         
 3         2.853320              -0.00327447      
 S   1
 1         0.905661               1.000000       
 S   1
 1         0.255611               1.000000      
 S   1
 1         0.0845000              1.0000000    
 P   3
 1        42.11750                0.0365114
 2         9.628370               0.237153
 3         2.853320               0.819702
 P   1
 1         0.905661               1.000000
 P   1
 1         0.255611               1.000000
 P   1
 1         0.0845000              1.0000000
 D   1
 1         2.5840000              1.0000000
 D   1
 1         0.6460000              1.0000000

N    7.0    -0.7880179112 -1.8237650768 -4.2289438607
 S   6
 1      6293.480                  0.00196979
 2       949.0440                 0.0149613
 3       218.7760                 0.0735006
 4        63.69160                0.2489370
 5        18.82820                0.6024600
 6         2.720230               0.2562020
 S   3
 1        30.63310                0.111906         
 2         7.026140               0.921666        
 3         2.112050              -0.00256919     
 S   1
 1         0.684009               1.000000      
 S   1
 1         0.200878               1.000000     
 S   1
 1         0.0639000              1.0000000   
 P   3
 1        30.63310                0.0383119
 2         7.026140               0.237403
 3         2.112050               0.817592
 P   1
 1         0.684009               1.000000
 P   1
 1         0.200878               1.000000
 P   1
 1         0.0639000              1.0000000
 D   1
 1         1.8260000              1.0000000
 D   1
 1         0.4565000              1.0000000

H    1.0    -1.1009142977 -1.2911163137 -5.0080134656
 S   3
 1        33.86500                0.0254938
 2         5.094790               0.190373
 3         1.158790               0.852161
 S   1
 1         0.325840               1.000000
 S   1
 1         0.102741               1.000000
 S   1
 1         0.0360000              1.0000000
 P   1
 1         1.5000000              1.0000000
 P   1
 1         0.3750000              1.0000000

C    6.0    -0.9305250938 -1.2357745203 -3.0041724281
 S   6
 1      4563.240                  0.00196665
 2       682.0240                 0.0152306
 3       154.9730                 0.0761269
 4        44.45530                0.2608010
 5        13.02900                0.6164620
 6         1.827730               0.2210060
 S   3
 1        20.96420                0.114660 
 2         4.803310               0.919999 
 3         1.459330              -0.00303068 
 S   1
 1         0.4834560              1.000000  
 S   1
 1         0.1455850              1.000000  
 S   1
 1         0.0438000              1.0000000  
 P   3
 1        20.96420                0.0402487
 2         4.803310               0.237594
 3         1.459330               0.815854
 P   1
 1         0.4834560              1.000000
 P   1
 1         0.1455850              1.000000
 P   1
 1         0.0438000              1.0000000
 D   1
 1         1.2520000              1.0000000
 D   1
 1         0.3130000              1.0000000

O    8.0    -1.3957115396 -0.1419645872 -2.8672261733
 S   6
 1      8588.500                  0.00189515
 2      1297.230                  0.0143859
 3       299.2960                 0.0707320
 4        87.37710                0.2400010
 5        25.67890                0.5947970
 6         3.740040               0.2808020
 S   3
 1        42.11750                0.113889          
 2         9.628370               0.920811         
 3         2.853320              -0.00327447      
 S   1
 1         0.905661               1.000000       
 S   1
 1         0.255611               1.000000      
 S   1
 1         0.0845000              1.0000000    
 P   3
 1        42.11750                0.0365114
 2         9.628370               0.237153
 3         2.853320               0.819702
 P   1
 1         0.905661               1.000000
 P   1
 1         0.255611               1.000000
 P   1
 1         0.0845000              1.0000000
 D   1
 1         2.5840000              1.0000000
 D   1
 1         0.6460000              1.0000000

H    1.0    -0.5852554135 -1.6007070636 -1.0533685306
 S   3
 1        33.86500                0.0254938
 2         5.094790               0.190373
 3         1.158790               0.852161
 S   1
 1         0.325840               1.000000
 S   1
 1         0.102741               1.000000
 S   1
 1         0.0360000              1.0000000
 P   1
 1         1.5000000              1.0000000
 P   1
 1         0.3750000              1.0000000

O    8.0    -0.1995258952 4.5325252248 1.4261367575
 S   6
 1      8588.500                  0.00189515
 2      1297.230                  0.0143859
 3       299.2960                 0.0707320
 4        87.37710                0.2400010
 5        25.67890                0.5947970
 6         3.740040               0.2808020
 S   3
 1        42.11750                0.113889          
 2         9.628370               0.920811         
 3         2.853320              -0.00327447      
 S   1
 1         0.905661               1.000000       
 S   1
 1         0.255611               1.000000      
 S   1
 1         0.0845000              1.0000000    
 P   3
 1        42.11750                0.0365114
 2         9.628370               0.237153
 3         2.853320               0.819702
 P   1
 1         0.905661               1.000000
 P   1
 1         0.255611               1.000000
 P   1
 1         0.0845000              1.0000000
 D   1
 1         2.5840000              1.0000000
 D   1
 1         0.6460000              1.0000000

C    6.0    0.3165808633 5.0752958344 2.3685442630
 S   6
 1      4563.240                  0.00196665
 2       682.0240                 0.0152306
 3       154.9730                 0.0761269
 4        44.45530                0.2608010
 5        13.02900                0.6164620
 6         1.827730               0.2210060
 S   3
 1        20.96420                0.114660 
 2         4.803310               0.919999 
 3         1.459330              -0.00303068 
 S   1
 1         0.4834560              1.000000  
 S   1
 1         0.1455850              1.000000  
 S   1
 1         0.0438000              1.0000000  
 P   3
 1        20.96420                0.0402487
 2         4.803310               0.237594
 3         1.459330               0.815854
 P   1
 1         0.4834560              1.000000
 P   1
 1         0.1455850              1.000000
 P   1
 1         0.0438000              1.0000000
 D   1
 1         1.2520000              1.0000000
 D   1
 1         0.3130000              1.0000000

H    1.0    0.4165472354 6.8908667841 1.5151909540
 S   3
 1        33.86500                0.0254938
 2         5.094790               0.190373
 3         1.158790               0.852161
 S   1
 1         0.325840               1.000000
 S   1
 1         0.102741               1.000000
 S   1
 1         0.0360000              1.0000000
 P   1
 1         1.5000000              1.0000000
 P   1
 1         0.3750000              1.0000000

N    7.0    0.6349727192 6.3975909855 2.3505484539
 S   6
 1      6293.480                  0.00196979
 2       949.0440                 0.0149613
 3       218.7760                 0.0735006
 4        63.69160                0.2489370
 5        18.82820                0.6024600
 6         2.720230               0.2562020
 S   3
 1        30.63310                0.111906         
 2         7.026140               0.921666        
 3         2.112050              -0.00256919     
 S   1
 1         0.684009               1.000000      
 S   1
 1         0.200878               1.000000     
 S   1
 1         0.0639000              1.0000000   
 P   3
 1        30.63310                0.0383119
 2         7.026140               0.237403
 3         2.112050               0.817592
 P   1
 1         0.684009               1.000000
 P   1
 1         0.200878               1.000000
 P   1
 1         0.0639000              1.0000000
 D   1
 1         1.8260000              1.0000000
 D   1
 1         0.4565000              1.0000000

C    6.0    1.2409536987 7.1239770701 3.3638498851
 S   6
 1      4563.240                  0.00196665
 2       682.0240                 0.0152306
 3       154.9730                 0.0761269
 4        44.45530                0.2608010
 5        13.02900                0.6164620
 6         1.827730               0.2210060
 S   3
 1        20.96420                0.114660 
 2         4.803310               0.919999 
 3         1.459330              -0.00303068 
 S   1
 1         0.4834560              1.000000  
 S   1
 1         0.1455850              1.000000  
 S   1
 1         0.0438000              1.0000000  
 P   3
 1        20.96420                0.0402487
 2         4.803310               0.237594
 3         1.459330               0.815854
 P   1
 1         0.4834560              1.000000
 P   1
 1         0.1455850              1.000000
 P   1
 1         0.0438000              1.0000000
 D   1
 1         1.2520000              1.0000000
 D   1
 1         0.3130000              1.0000000

H    1.0    0.4259287468 3.4535123933 3.5655989063
 S   3
 1        33.86500                0.0254938
 2         5.094790               0.190373
 3         1.158790               0.852161
 S   1
 1         0.325840               1.000000
 S   1
 1         0.102741               1.000000
 S   1
 1         0.0360000              1.0000000
 P   1
 1         1.5000000              1.0000000
 P   1
 1         0.3750000              1.0000000

N    7.0    0.6260651336 4.4351674197 3.5167233580
 S   6
 1      6293.480                  0.00196979
 2       949.0440                 0.0149613
 3       218.7760                 0.0735006
 4        63.69160                0.2489370
 5        18.82820                0.6024600