 $scf dirscf=.t. damp=.t. shift=.f.
   soscf=.f. diis=.t. fdiff=.f. extrap=.f. $end
 $system mwords=500 memddi=500 $end
 $intgrl schwrz=.t. intomp=1 shfock=.f. $end
 $guess guess=huckel $end
 $contrl scftyp=rhf runtyp=energy nprint=-5
     icharg=0 ispher=0 inttyp=eric 
     maxit=200 $end
 $end
 $data
formic_acid_trimer 
C1
C    6.0    -1.9528184972 -0.3087347051 -2.0091285808
 S   6
 1      4563.240                  0.00196665
 2       682.0240                 0.0152306
 3       154.9730                 0.0761269
 4        44.45530                0.2608010
 5        13.02900                0.6164620
 6         1.827730               0.2210060
 S   3
 1        20.96420                0.114660 
 2         4.803310               0.919999 
 3         1.459330              -0.00303068 
 S   1
 1         0.4834560              1.000000  
 S   1
 1         0.1455850              1.000000  
 S   1
 1         0.0438000              1.0000000  
 P   3
 1        20.96420                0.0402487
 2         4.803310               0.237594
 3         1.459330               0.815854
 P   1
 1         0.4834560              1.000000
 P   1
 1         0.1455850              1.000000
 P   1
 1         0.0438000              1.0000000
 D   1
 1         1.2520000              1.0000000
 D   1
 1         0.3130000              1.0000000

O    8.0    -2.2935092213 -0.2177787494 -0.7609301272
 S   6
 1      8588.500                  0.00189515
 2      1297.230                  0.0143859
 3       299.2960                 0.0707320
 4        87.37710                0.2400010
 5        25.67890                0.5947970
 6         3.740040               0.2808020
 S   3
 1        42.11750                0.113889          
 2         9.628370               0.920811         
 3         2.853320              -0.00327447      
 S   1
 1         0.905661               1.000000       
 S   1
 1         0.255611               1.000000      
 S   1
 1         0.0845000              1.0000000    
 P   3
 1        42.11750                0.0365114
 2         9.628370               0.237153
 3         2.853320               0.819702
 P   1
 1         0.905661               1.000000
 P   1
 1         0.255611               1.000000
 P   1
 1         0.0845000              1.0000000
 D   1
 1         2.5840000              1.0000000
 D   1
 1         0.6460000              1.0000000

O    8.0    -0.8375606987 -0.3279032356 -2.4249083901
 S   6
 1      8588.500                  0.00189515
 2      1297.230                  0.0143859
 3       299.2960                 0.0707320
 4        87.37710                0.2400010
 5        25.67890                0.5947970
 6         3.740040               0.2808020
 S   3
 1        42.11750                0.113889          
 2         9.628370               0.920811         
 3         2.853320              -0.00327447      
 S   1
 1         0.905661               1.000000       
 S   1
 1         0.255611               1.000000      
 S   1
 1         0.0845000              1.0000000    
 P   3
 1        42.11750                0.0365114
 2         9.628370               0.237153
 3         2.853320               0.819702
 P   1
 1         0.905661               1.000000
 P   1
 1         0.255611               1.000000
 P   1
 1         0.0845000              1.0000000
 D   1
 1         2.5840000              1.0000000
 D   1
 1         0.6460000              1.0000000

H    1.0    -2.8176280231 -0.3676733908 -2.6597101729
 S   3
 1        33.86500                0.0254938
 2         5.094790               0.190373
 3         1.158790               0.852161
 S   1
 1         0.325840               1.000000
 S   1
 1         0.102741               1.000000
 S   1
 1         0.0360000              1.0000000
 P   1
 1         1.5000000              1.0000000
 P   1
 1         0.3750000              1.0000000

H    1.0    -1.5217457959 -0.1646539217 -0.1937084708
 S   3
 1        33.86500                0.0254938
 2         5.094790               0.190373
 3         1.158790               0.852161
 S   1
 1         0.325840               1.000000
 S   1
 1         0.102741               1.000000
 S   1
 1         0.0360000              1.0000000
 P   1
 1         1.5000000              1.0000000
 P   1
 1         0.3750000              1.0000000

C    6.0    1.1776019736 -0.0862365315 0.3077365830
 S   6
 1      4563.240                  0.00196665
 2       682.0240                 0.0152306
 3       154.9730                 0.0761269
 4        44.45530                0.2608010
 5        13.02900                0.6164620
 6         1.827730               0.2210060
 S   3
 1        20.96420                0.114660 
 2         4.803310               0.919999 
 3         1.459330              -0.00303068 
 S   1
 1         0.4834560              1.000000  
 S   1
 1         0.1455850              1.000000  
 S   1
 1         0.0438000              1.0000000  
 P   3
 1        20.96420                0.0402487
 2         4.803310               0.237594
 3         1.459330               0.815854
 P   1
 1         0.4834560              1.000000
 P   1
 1         0.1455850              1.000000
 P   1
 1         0.0438000              1.0000000
 D   1
 1         1.2520000              1.0000000
 D   1
 1         0.3130000              1.0000000

O    8.0    1.4819276074 -0.1857915669 -0.9401926105
 S   6
 1      8588.500                  0.00189515
 2      1297.230                  0.0143859
 3       299.2960                 0.0707320
 4        87.37710                0.2400010
 5        25.67890                0.5947970
 6         3.740040               0.2808020
 S   3
 1        42.11750                0.113889          
 2         9.628370               0.920811         
 3         2.853320              -0.00327447      
 S   1
 1         0.905661               1.000000       
 S   1
 1         0.255611               1.000000      
 S   1
 1         0.0845000              1.0000000    
 P   3
 1        42.11750                0.0365114
 2         9.628370               0.237153
 3         2.853320               0.819702
 P   1
 1         0.905661               1.000000
 P   1
 1         0.255611               1.000000
 P   1
 1         0.0845000              1.0000000
 D   1
 1         2.5840000              1.0000000
 D   1
 1         0.6460000              1.0000000

O    8.0    0.0575665636 -0.0658442691 0.7426737344
 S   6
 1      8588.500                  0.00189515
 2      1297.230                  0.0143859
 3       299.2960                 0.0707320
 4        87.37710                0.2400010
 5        25.67890                0.5947970
 6         3.740040               0.2808020
 S   3
 1        42.11750                0.113889          
 2         9.628370               0.920811         
 3         2.853320              -0.00327447      
 S   1
 1         0.905661               1.000000       
 S   1
 1         0.255611               1.000000      
 S   1
 1         0.0845000              1.0000000    
 P   3
 1        42.11750                0.0365114
 2         9.628370               0.237153
 3         2.853320               0.819702
 P   1
 1         0.905661               1.000000
 P   1
 1         0.255611               1.000000
 P   1
 1         0.0845000              1.0000000
 D   1
 1         2.5840000              1.0000000
 D   1
 1         0.6460000              1.0000000

H    1.0    2.0396762944 -0.0196216667 0.9557301827
 S   3
 1        33.86500                0.0254938
 2         5.094790               0.190373
 3         1.158790               0.852161
 S   1
 1         0.325840               1.000000
 S   1
 1         0.102741               1.000000
 S   1
 1         0.0360000              1.0000000
 P   1
 1         1.5000000              1.0000000
 P   1
 1         0.3750000              1.0000000

H    1.0    0.7016202927 -0.2406179353 -1.5003381697
 S   3
 1        33.86500                0.0254938
 2         5.094790               0.190373
 3         1.158790               0.852161
 S   1
 1         0.325840               1.000000
 S   1
 1         0.102741               1.000000
 S   1
 1         0.0360000              1.0000000
 P   1
 1         1.5000000              1.0000000
 P   1
 1         0.3750000              1.0000000

H    1.0    -0.1465188281 0.1203293044 2.6085760406
 S   3
 1        33.86500                0.0254938
 2         5.094790               0.190373
 3         1.158790               0.852161
 S   1
 1         0.325840               1.000000
 S   1
 1         0.102741               1.000000
 S   1
 1         0.0360000              1.0000000
 P   1
 1         1.5000000              1.0000000
 P   1
 1         0.3750000              1.0000000

O    8.0    -0.1523940375 0.2265024250 3.5590668725
 S   6
 1      8588.500                  0.00189515
 2      1297.230                  0.0143859
 3       299.2960                 0.0707320
 4        87.37710                0.2400010
 5        25.67890                0.5947970
 6         3.740040               0.2808020
 S   3
 1        42.11750                0.113889          
 2         9.628370               0.920811         
 3         2.853320              -0.00327447      
 S   1
 1         0.905661               1.000000       
 S   1
 1         0.255611               1.000000      
 S   1
 1         0.0845000              1.0000000    
 P   3
 1        42.11750                0.0365114
 2         9.628370               0.237153
 3         2.853320               0.819702
 P   1
 1         0.905661               1.000000
 P   1
 1         0.255611               1.000000
 P   1
 1         0.0845000              1.0000000
 D   1
 1         2.5840000              1.0000000
 D   1
 1         0.6460000              1.0000000

C    6.0    1.0682710604 0.3123491623 4.0177769843
 S   6
 1      4563.240                  0.00196665
 2       682.0240                 0.0152306
 3       154.9730                 0.0761269
 4        44.45530                0.2608010
 5        13.02900                0.6164620
 6         1.827730               0.2210060
 S   3
 1        20.96420                0.114660 
 2         4.803310               0.919999 
 3         1.459330              -0.00303068 
 S   1
 1         0.4834560              1.000000  
 S   1
 1         0.1455850              1.000000  
 S   1
 1         0.0438000              1.0000000  
 P   3
 1        20.96420                0.0402487
 2         4.803310               0.237594
 3         1.459330               0.815854
 P   1
 1         0.4834560              1.000000
 P   1
 1         0.1455850              1.000000
 P   1
 1         0.0438000              1.0000000
 D   1
 1         1.2520000              1.0000000
 D   1
 1         0.3130000              1.0000000

O    8.0    2.0539695277 0.2643766738 3.3642767814
 S   6
 1      8588.500                  0.00189515
 2      1297.230                  0.0143859
 3       299.2960                 0.0707320
 4        87.37710                0.2400010
 5        25.67890                0.5947970
 6         3.740040               0.2808020
 S   3
 1        42.11750                0.113889          
 2         9.628370               0.920811         
 3         2.853320              -0.00327447      
 S   1
 1         0.905661               1.000000       
 S   1
 1         0.255611               1.000000      
 S   1
 1         0.0845000              1.0000000    
 P   3
 1        42.11750                0.0365114
 2         9.628370               0.237153
 3         2.853320               0.819702
 P   1
 1         0.905661               1.000000
 P   1
 1         0.255611               1.000000
 P   1
 1         0.0845000              1.0000000
 D   1
 1         2.5840000              1.0000000
 D   1
 1         0.6460000              1.0000000

H    1.0    1.0733619120 0.4360591211 5.0961250462 
 S   3
 1        33.86500                0.0254938
 2         5.094790               0.190373
 3         1.158790               0.852161
 S   1
 1         0.325840               1.000000
 S   1
 1         0.102741               1.000000
 S   1
 1         0.0360000              1.0000000
 P   1
 1         1.5000000              1.0000000
 P   1
 1         0.3750000              1.0000000

 $end
