 $scf dirscf=.t. damp=.t. shift=.f.
   soscf=.f. diis=.t. fdiff=.f. extrap=.f. $end
 $system mwords=500 memddi=500 $end
 $intgrl schwrz=.t. intomp=1 shfock=.f. $end
 $guess guess=huckel $end
 $contrl scftyp=rhf runtyp=energy nprint=-5
     icharg=0 ispher=0 inttyp=eric 
     maxit=200 $end
 $end
 $data
pyrazine_trimer 
C1
C    6.0    -1.0456739541 -1.0734439704 -1.1458253163
 S   6
 1      4563.240                  0.00196665
 2       682.0240                 0.0152306
 3       154.9730                 0.0761269
 4        44.45530                0.2608010
 5        13.02900                0.6164620
 6         1.827730               0.2210060
 S   3
 1        20.96420                0.114660 
 2         4.803310               0.919999 
 3         1.459330              -0.00303068 
 S   1
 1         0.4834560              1.000000  
 S   1
 1         0.1455850              1.000000  
 S   1
 1         0.0438000              1.0000000  
 P   3
 1        20.96420                0.0402487
 2         4.803310               0.237594
 3         1.459330               0.815854
 P   1
 1         0.4834560              1.000000
 P   1
 1         0.1455850              1.000000
 P   1
 1         0.0438000              1.0000000
 D   1
 1         1.2520000              1.0000000
 D   1
 1         0.3130000              1.0000000

C    6.0    -1.1246302228 -1.2717224129 0.2187618182
 S   6
 1      4563.240                  0.00196665
 2       682.0240                 0.0152306
 3       154.9730                 0.0761269
 4        44.45530                0.2608010
 5        13.02900                0.6164620
 6         1.827730               0.2210060
 S   3
 1        20.96420                0.114660 
 2         4.803310               0.919999 
 3         1.459330              -0.00303068 
 S   1
 1         0.4834560              1.000000  
 S   1
 1         0.1455850              1.000000  
 S   1
 1         0.0438000              1.0000000  
 P   3
 1        20.96420                0.0402487
 2         4.803310               0.237594
 3         1.459330               0.815854
 P   1
 1         0.4834560              1.000000
 P   1
 1         0.1455850              1.000000
 P   1
 1         0.0438000              1.0000000
 D   1
 1         1.2520000              1.0000000
 D   1
 1         0.3130000              1.0000000

N    7.0    -0.1510001118 -1.8480896774 0.8899827901
 S   6
 1      6293.480                  0.00196979
 2       949.0440                 0.0149613
 3       218.7760                 0.0735006
 4        63.69160                0.2489370
 5        18.82820                0.6024600
 6         2.720230               0.2562020
 S   3
 1        30.63310                0.111906         
 2         7.026140               0.921666        
 3         2.112050              -0.00256919     
 S   1
 1         0.684009               1.000000      
 S   1
 1         0.200878               1.000000     
 S   1
 1         0.0639000              1.0000000   
 P   3
 1        30.63310                0.0383119
 2         7.026140               0.237403
 3         2.112050               0.817592
 P   1
 1         0.684009               1.000000
 P   1
 1         0.200878               1.000000
 P   1
 1         0.0639000              1.0000000
 D   1
 1         1.8260000              1.0000000
 D   1
 1         0.4565000              1.0000000

C    6.0    0.8999411703 -2.2239492276 0.1993412012
 S   6
 1      4563.240                  0.00196665
 2       682.0240                 0.0152306
 3       154.9730                 0.0761269
 4        44.45530                0.2608010
 5        13.02900                0.6164620
 6         1.827730               0.2210060
 S   3
 1        20.96420                0.114660 
 2         4.803310               0.919999 
 3         1.459330              -0.00303068 
 S   1
 1         0.4834560              1.000000  
 S   1
 1         0.1455850              1.000000  
 S   1
 1         0.0438000              1.0000000  
 P   3
 1        20.96420                0.0402487
 2         4.803310               0.237594
 3         1.459330               0.815854
 P   1
 1         0.4834560              1.000000
 P   1
 1         0.1455850              1.000000
 P   1
 1         0.0438000              1.0000000
 D   1
 1         1.2520000              1.0000000
 D   1
 1         0.3130000              1.0000000

C    6.0    0.9792995272 -2.0255048260 -1.1682809958
 S   6
 1      4563.240                  0.00196665
 2       682.0240                 0.0152306
 3       154.9730                 0.0761269
 4        44.45530                0.2608010
 5        13.02900                0.6164620
 6         1.827730               0.2210060
 S   3
 1        20.96420                0.114660 
 2         4.803310               0.919999 
 3         1.459330              -0.00303068 
 S   1
 1         0.4834560              1.000000  
 S   1
 1         0.1455850              1.000000  
 S   1
 1         0.0438000              1.0000000  
 P   3
 1        20.96420                0.0402487
 2         4.803310               0.237594
 3         1.459330               0.815854
 P   1
 1         0.4834560              1.000000
 P   1
 1         0.1455850              1.000000
 P   1
 1         0.0438000              1.0000000
 D   1
 1         1.2520000              1.0000000
 D   1
 1         0.3130000              1.0000000

N    7.0    0.0064092133 -1.4533324514 -1.8391827062
 S   6
 1      6293.480                  0.00196979
 2       949.0440                 0.0149613
 3       218.7760                 0.0735006
 4        63.69160                0.2489370
 5        18.82820                0.6024600
 6         2.720230               0.2562020
 S   3
 1        30.63310                0.111906         
 2         7.026140               0.921666        
 3         2.112050              -0.00256919     
 S   1
 1         0.684009               1.000000      
 S   1
 1         0.200878               1.000000     
 S   1
 1         0.0639000              1.0000000   
 P   3
 1        30.63310                0.0383119
 2         7.026140               0.237403
 3         2.112050               0.817592
 P   1
 1         0.684009               1.000000
 P   1
 1         0.200878               1.000000
 P   1
 1         0.0639000              1.0000000
 D   1
 1         1.8260000              1.0000000
 D   1
 1         0.4565000              1.0000000

H    1.0    -1.8481141883 -0.5997955198 -1.6773916940
 S   3
 1        33.86500                0.0254938
 2         5.094790               0.190373
 3         1.158790               0.852161
 S   1
 1         0.325840               1.000000
 S   1
 1         0.102741               1.000000
 S   1
 1         0.0360000              1.0000000
 P   1
 1         1.5000000              1.0000000
 P   1
 1         0.3750000              1.0000000

H    1.0    -1.9925877745 -0.9627749896 0.7673991213
 S   3
 1        33.86500                0.0254938
 2         5.094790               0.190373
 3         1.158790               0.852161
 S   1
 1         0.325840               1.000000
 S   1
 1         0.102741               1.000000
 S   1
 1         0.0360000              1.0000000
 P   1
 1         1.5000000              1.0000000
 P   1
 1         0.3750000              1.0000000

H    1.0    1.7002272490 -2.7015215251 0.7302178365
 S   3
 1        33.86500                0.0254938
 2         5.094790               0.190373
 3         1.158790               0.852161
 S   1
 1         0.325840               1.000000
 S   1
 1         0.102741               1.000000
 S   1
 1         0.0360000              1.0000000
 P   1
 1         1.5000000              1.0000000
 P   1
 1         0.3750000              1.0000000

H    1.0    1.8461622669 -2.3390583636 -1.7174679607
 S   3
 1        33.86500                0.0254938
 2         5.094790               0.190373
 3         1.158790               0.852161
 S   1
 1         0.325840               1.000000
 S   1
 1         0.102741               1.000000
 S   1
 1         0.0360000              1.0000000
 P   1
 1         1.5000000              1.0000000
 P   1
 1         0.3750000              1.0000000

C    6.0    -0.4342157152 2.1294175925 1.2360096241
 S   6
 1      4563.240                  0.00196665
 2       682.0240                 0.0152306
 3       154.9730                 0.0761269
 4        44.45530                0.2608010
 5        13.02900                0.6164620
 6         1.827730               0.2210060
 S   3
 1        20.96420                0.114660 
 2         4.803310               0.919999 
 3         1.459330              -0.00303068 
 S   1
 1         0.4834560              1.000000  
 S   1
 1         0.1455850              1.000000  
 S   1
 1         0.0438000              1.0000000  
 P   3
 1        20.96420                0.0402487
 2         4.803310               0.237594
 3         1.459330               0.815854
 P   1
 1         0.4834560              1.000000
 P   1
 1         0.1455850              1.000000
 P   1
 1         0.0438000              1.0000000
 D   1
 1         1.2520000              1.0000000
 D   1
 1         0.3130000              1.0000000

C    6.0    0.7985826597 1.5024611435 1.2149058447
 S   6
 1      4563.240                  0.00196665
 2       682.0240                 0.0152306
 3       154.9730                 0.0761269
 4        44.45530                0.2608010
 5        13.02900                0.6164620
 6         1.827730               0.2210060
 S   3
 1        20.96420                0.114660 
 2         4.803310               0.919999 
 3         1.459330              -0.00303068 
 S   1
 1         0.4834560              1.000000  
 S   1
 1         0.1455850              1.000000  
 S   1
 1         0.0438000              1.0000000  
 P   3
 1        20.96420                0.0402487
 2         4.803310               0.237594
 3         1.459330               0.815854
 P   1
 1         0.4834560              1.000000
 P   1
 1         0.1455850              1.000000
 P   1
 1         0.0438000              1.0000000
 D   1
 1         1.2520000              1.0000000
 D   1
 1         0.3130000              1.0000000

N    7.0    1.4801207155 1.3583737606 0.1002912142
 S   6
 1      6293.480                  0.00196979
 2       949.0440                 0.0149613
 3       218.7760                 0.0735006
 4        63.69160                0.2489370
 5        18.82820                0.6024600
 6         2.720230               0.2562020
 S   3
 1        30.63310                0.111906         
 2         7.026140               0.921666        
 3         2.112050              -0.00256919     
 S   1
 1         0.684009               1.000000      
 S   1
 1         0.200878               1.000000     
 S   1
 1         0.0639000              1.0000000   
 P   3
 1        30.63310                0.0383119
 2         7.026140               0.237403
 3         2.112050               0.817592
 P   1
 1         0.684009               1.000000
 P   1
 1         0.200878               1.000000
 P   1
 1         0.0639000              1.0000000
 D   1
 1         1.8260000              1.0000000
 D   1
 1         0.4565000              1.0000000

C    6.0    0.9314832065 1.8373411138 -0.9937702579
 S   6
 1      4563.240                  0.00196665
 2       682.0240                 0.0152306
 3       154.9730                 0.0761269
 4        44.45530                0.2608010
 5        13.02900                0.6164620
 6         1.827730               0.2210060
 S   3
 1        20.96420                0.114660 
 2         4.803310               0.919999 
 3         1.459330              -0.00303068 
 S   1
 1         0.4834560              1.000000  
 S   1
 1         0.1455850              1.000000  
 S   1
 1         0.0438000              1.0000000  
 P   3
 1        20.96420                0.0402487
 2         4.803310               0.237594
 3         1.459330               0.815854
 P   1
 1         0.4834560              1.000000
 P   1
 1         0.1455850              1.000000
 P   1
 1         0.0438000              1.0000000
 D   1
 1         1.2520000              1.0000000
 D   1
 1         0.3130000              1.0000000

C    6.0    -0.3012748257 2.4646636403 -0.9729432498
 S   6
 1      4563.240                  0.00196665
 2       682.0240                 0.0152306
 3       154.9730                 0.0761269
 4        44.45530                0.2608010
 5        13.02900                0.6164620
 6         1.827730               0.2210060
 S   3
 1        20.96420                0.114660 
 2         4.803310               0.919999 
 3         1.459330              -0.00303068 
 S   1
 1         0.4834560              1.000000  
 S   1
 1         0.1455850              1.000000  
 S   1
 1         0.0438000              1.0000000  
 P   3
 1        20.96420                0.0402487
 2         4.803310               0.237594
 3         1.459330               0.815854
 P   1
 1         0.4834560              1.000000
 P   1
 1         0.1455850              1.000000
 P   1
 1         0.0438000              1.0000000
 D   1
 1         1.2520000              1.0000000
 D   1
 1         0.3130000              1.0000000

N    7.0    -0.9828927847 2.6096166152 0.1418767901
 S   6
 1      6293.480                  0.00196979
 2       949.0440                 0.0149613
 3       218.7760                 0.0735006
 4        63.69160                0.2489370
 5        18.82820                0.6024600
 6         2.720230               0.2562020
 S   3
 1        30.63310                0.111906         
 2         7.026140               0.921666        
 3         2.112050              -0.00256919     
 S   1
 1         0.684009               1.000000      
 S   1
 1         0.200878               1.000000     
 S   1
 1         0.0639000              1.0000000   
 P   3
 1        30.63310                0.0383119
 2         7.026140               0.237403
 3         2.112050               0.817592
 P   1
 1         0.684009               1.000000
 P   1
 1         0.200878               1.000000
 P   1
 1         0.0639000              1.0000000
 D   1
 1         1.8260000              1.0000000
 D   1
 1         0.4565000              1.0000000

H    1.0    -0.9799046891 2.2355700222 2.1538945752
 S   3
 1        33.86500                0.0254938
 2         5.094790               0.190373
 3         1.158790               0.852161
 S   1
 1         0.325840               1.000000
 S   1
 1         0.102741               1.000000
 S   1
 1         0.0360000              1.0000000
 P   1
 1         1.5000000              1.0000000
 P   1
 1         0.3750000              1.0000000

H    1.0    1.2266909056 1.1039413001 2.1140647860
 S   3
 1        33.86500                0.0254938
 2         5.094790               0.190373
 3         1.158790               0.852161
 S   1
 1         0.325840               1.000000
 S   1
 1         0.102741               1.000000
 S   1
 1         0.0360000              1.0000000
 P   1
 1         1.5000000              1.0000000
 P   1
 1         0.3750000              1.0000000

H    1.0    1.4691768452 1.7150144748 -1.9138621729
 S   3
 1        33.86500                0.0254938
 2         5.094790               0.190373
 3         1.158790               0.852161
 S   1
 1         0.325840               1.000000
 S   1
 1         0.102741               1.000000
 S   1
 1         0.0360000              1.0000000
 P   1
 1         1.5000000              1.0000000
 P   1
 1         0.3750000              1.0000000

H    1.0    -0.7371664542 2.8471381216 -1.8758845478
 S   3
 1        33.86500                0.0254938
 2         5.094790               0.190373
 3         1.158790               0.852161
 S   1
 1         0.325840               1.000000
 S   1
 1         0.102741               1.000000
 S   1
 1         0.0360000              1.0000000
 P   1
 1         1.5000000              1.0000000
 P   1
 1         0.3750000              1.0000000

C    6.0    -0.9173174018 -5.0793953147 -0.7561121726
 S   6
 1      4563.240                  0.00196665
 2       682.0240                 0.0152306
 3       154.9730                 0.0761269
 4        44.45530                0.2608010
 5        13.02900                0.6164620
 6         1.827730               0.2210060
 S   3
 1        20.96420                0.114660 
 2         4.803310               0.919999 
 3         1.459330              -0.00303068 
 S   1
 1         0.4834560              1.000000  
 S   1
 1         0.1455850              1.000000  
 S   1
 1         0.0438000              1.0000000  
 P   3
 1        20.96420                0.0402487
 2         4.803310               0.237594
 3         1.459330               0.815854
 P   1
 1         0.4834560              1.000000
 P   1
 1         0.1455850              1.000000
 P   1
 1         0.0438000              1.0000000
 D   1
 1         1.2520000              1.0000000
 D   1
 1         0.3130000              1.0000000

N    7.0    -0.3431014441 -5.5089497655 0.3471153809
 S   6
 1      6293.480                  0.00196979
 2       949.0440                 0.0149613
 3       218.7760                 0.0735006
 4        63.69160                0.2489370
 5        18.82820                0.6024600
 6         2.720230               0.2562020
 S   3
 1        30.63310                0.111906         
 2         7.026140               0.921666        
 3         2.112050              -0.00256919     
 S   1
 1         0.684009               1.000000      
 S   1
 1         0.200878               1.000000     
 S   1
 1         0.0639000              1.0000000   
 P   3
 1        30.63310                0.0383119
 2         7.026140               0.237403
 3         2.112050               0.817592
 P   1
 1         0.684009               1.000000
 P   1
 1         0.200878               1.000000
 P   1
 1         0.0639000              1.0000000
 D   1
 1         1.8260000              1.0000000
 D   1
 1         0.4565000              1.0000000

H    1.0    -0.3783831229 -5.1975208684 -1.6760773703
 S   3
 1        33.86500                0.0254938
 2         5.094790               0.190373
 3         1.158790               0.852161
 S   1
 1         0.325840               1.000000
 S   1
 1         0.102741               1.000000
 S   1
 1         0.0360000              1.0000000
 P   1
 1         1.5000000              1.0000000
 P   1
 1         0.3750000              1.0000000

H    1.0    -0.5567282618 -5.6824407212 2.3735880568
 S   3
 1        33.86500                0.0254938
 2         5.094790               0.190373
 3         1.158790               0.852161
 S   1
 1         0.325840               1.000000
 S   1
 1         0.102741               1.000000
 S   1
 1         0.0360000              1.0000000
 P   1
 1         1.5000000              1.0000000
 P   1
 1         0.3750000              1.0000000

C    6.0    -1.0141072791 -5.3442989685 1.4637033960
 S   6
 1      4563.240                  0.00196665
 2       682.0240                 0.0152306
 3       154.9730                 0.0761269
 4        44.45530                0.2608010
 5        13.02900                0.6164620
 6         1.827730               0.2210060
 S   3
 1        20.96420                0.114660 
 2         4.803310               0.919999 
 3         1.459330              -0.00303068 
 S   1
 1         0.4834560              1.000000  
 S   1
 1         0.1455850              1.000000  
 S   1
 1         0.0438000              1.0000000  
 P   3
 1        20.96420                0.0402487
 2         4.803310               0.237594
 3         1.459330               0.815854
 P   1
 1         0.4834560              1.000000
 P   1
 1         0.1455850              1.000000
 P   1
 1         0.0438000              1.0000000
 D   1
 1         1.2520000              1.0000000
 D   1
 1         0.3130000              1.0000000

C    6.0    -2.1662284988 -4.4881757236 -0.7409290670
 S   6
 1      4563.240                  0.00196665
 2       682.0240                 0.0152306
 3       154.9730                 0.0761269
 4        44.45530                0.2608010
 5        13.02900                0.6164620
 6         1.827730               0.2210060
 S   3
 1        20.96420                0.114660 
 2         4.803310               0.919999 
 3         1.459330              -0.00303068 
 S   1
 1         0.4834560              1.000000  
 S   1
 1         0.1455850              1.000000  
 S   1
 1         0.0438000              1.0000000  
 P   3
 1        20.96420                0.0402487
 2         4.803310               0.237594
 3         1.459330               0.815854
 P   1
 1         0.4834560              1.000000
 P   1
 1         0.1455850              1.000000
 P   1
 1         0.0438000              1.0000000
 D   1
 1         1.2520000              1.0000000
 D   1
 1         0.3130000              1.0000000

H    1.0    -2.6173490705 -4.1369154108 -1.6485807705
 S   3
 1        33.86500                0.0254938
 2         5.094790               0.190373
 3         1.158790               0.852161
 S   1
 1         0.325840               1.000000
 S   1
 1         0.102741               1.000000
 S   1
 1         0.0360000              1.0000000
 P   1
 1         1.5000000              1.0000000
 P   1
 1         0.3750000              1.0000000

N    7.0    -2.8403749737 -4.3272897074 0.3775265706
 S   6
 1      6293.480                  0.00196979
 2       949.0440                 0.0149613
 3       218.7760                 0.0735006
 4        63.69160                0.2489370
 5        18.82820                0.6024600
 6         2.720230               0.2562020
 S   3
 1        30.63310                0.111906         
 2         7.026140               0.921666        
 3         2.112050              -0.00256919     
 S   1
 1         0.684009               1.000000      
 S   1
 1         0.200878               1.000000     
 S   1
 1         0.0639000              1.0000000   
 P   3
 1        30.63310                0.0383119
 2         7.026140               0.237403
 3         2.112050               0.817592
 P   1
 1         0.684009               1.000000
 P   1
 1         0.200878               1.000000
 P   1
 1         0.0639000              1.0000000
 D   1
 1         1.8260000              1.0000000
 D   1
 1         0.4565000              1.0000000

C    6.0    -2.2655938982 -4.7522262582 1.4789403276
 S   6
 1      4563.240                  0.00196665
 2       682.0240                 0.0152306
 3       154.9730                 0.0761269
 4        44.45530                0.2608010
 5        13.02900                0.6164620
 6         1.827730               0.2210060
 S   3
 1        20.96420                0.114660 
 2         4.803310               0.919999 
 3         1.459330              -0.00303068 
 S   1
 1         0.4834560              1.000000  
 S   1
 1         0.1455850              1.000000  
 S   1
 1         0.0438000              1.0000000  
 P   3
 1        20.96420                0.0402487
 2         4.803310               0.237594
 3         1.459330               0.815854
 P   1
 1         0.4834560              1.000000
 P   1
 1         0.1455850              1.000000
 P   1
 1         0.0438000              1.0000000
 D   1
 1         1.2520000              1.0000000
 D   1
 1         0.3130000              1.0000000

H    1.0    -2.7988489759 -4.6218042342 2.4009258406
 S   3
 1        33.86500                0.0254938
 2         5.094790               0.190373
 3         1.158790               0.852161
 S   1
 1         0.325840               1.000000
 S   1
 1         0.102741               1.000000
 S   1
 1         0.0360000              1.0000000
 P   1
 1         1.5000000              1.0000000
 P   1
 1         0.3750000              1.0000000

 $end
