 $scf dirscf=.t. damp=.t. shift=.f.
   soscf=.f. diis=.t. fdiff=.f. extrap=.f. $end
 $system mwords=500 memddi=500 $end
 $intgrl schwrz=.t. intomp=1 shfock=.f. $end
 $guess guess=huckel $end
 $contrl scftyp=rhf runtyp=energy nprint=-5
     icharg=0 ispher=0 inttyp=eric 
     maxit=200 $end
 $end
 $data
uracil_trimer 
C1
O    8.0    -1.3751424264 1.0644899567 -0.0000000000
 S   6
 1      8588.500                  0.00189515
 2      1297.230                  0.0143859
 3       299.2960                 0.0707320
 4        87.37710                0.2400010
 5        25.67890                0.5947970
 6         3.740040               0.2808020
 S   3
 1        42.11750                0.113889          
 2         9.628370               0.920811         
 3         2.853320              -0.00327447      
 S   1
 1         0.905661               1.000000       
 S   1
 1         0.255611               1.000000      
 S   1
 1         0.0845000              1.0000000    
 P   3
 1        42.11750                0.0365114
 2         9.628370               0.237153
 3         2.853320               0.819702
 P   1
 1         0.905661               1.000000
 P   1
 1         0.255611               1.000000
 P   1
 1         0.0845000              1.0000000
 D   1
 1         2.5840000              1.0000000
 D   1
 1         0.6460000              1.0000000

C    6.0    -0.5775117751 1.9657954144 -0.0000000000
 S   6
 1      4563.240                  0.00196665
 2       682.0240                 0.0152306
 3       154.9730                 0.0761269
 4        44.45530                0.2608010
 5        13.02900                0.6164620
 6         1.827730               0.2210060
 S   3
 1        20.96420                0.114660 
 2         4.803310               0.919999 
 3         1.459330              -0.00303068 
 S   1
 1         0.4834560              1.000000  
 S   1
 1         0.1455850              1.000000  
 S   1
 1         0.0438000              1.0000000  
 P   3
 1        20.96420                0.0402487
 2         4.803310               0.237594
 3         1.459330               0.815854
 P   1
 1         0.4834560              1.000000
 P   1
 1         0.1455850              1.000000
 P   1
 1         0.0438000              1.0000000
 D   1
 1         1.2520000              1.0000000
 D   1
 1         0.3130000              1.0000000

N    7.0    0.7628645720 1.7465440798 0.0000000000
 S   6
 1      6293.480                  0.00196979
 2       949.0440                 0.0149613
 3       218.7760                 0.0735006
 4        63.69160                0.2489370
 5        18.82820                0.6024600
 6         2.720230               0.2562020
 S   3
 1        30.63310                0.111906         
 2         7.026140               0.921666        
 3         2.112050              -0.00256919     
 S   1
 1         0.684009               1.000000      
 S   1
 1         0.200878               1.000000     
 S   1
 1         0.0639000              1.0000000   
 P   3
 1        30.63310                0.0383119
 2         7.026140               0.237403
 3         2.112050               0.817592
 P   1
 1         0.684009               1.000000
 P   1
 1         0.200878               1.000000
 P   1
 1         0.0639000              1.0000000
 D   1
 1         1.8260000              1.0000000
 D   1
 1         0.4565000              1.0000000

C    6.0    1.6689213039 2.7638074880 0.0000000000
 S   6
 1      4563.240                  0.00196665
 2       682.0240                 0.0152306
 3       154.9730                 0.0761269
 4        44.45530                0.2608010
 5        13.02900                0.6164620
 6         1.827730               0.2210060
 S   3
 1        20.96420                0.114660 
 2         4.803310               0.919999 
 3         1.459330              -0.00303068 
 S   1
 1         0.4834560              1.000000  
 S   1
 1         0.1455850              1.000000  
 S   1
 1         0.0438000              1.0000000  
 P   3
 1        20.96420                0.0402487
 2         4.803310               0.237594
 3         1.459330               0.815854
 P   1
 1         0.4834560              1.000000
 P   1
 1         0.1455850              1.000000
 P   1
 1         0.0438000              1.0000000
 D   1
 1         1.2520000              1.0000000
 D   1
 1         0.3130000              1.0000000

C    6.0    1.3044915740 4.0414500091 -0.0000000000
 S   6
 1      4563.240                  0.00196665
 2       682.0240                 0.0152306
 3       154.9730                 0.0761269
 4        44.45530                0.2608010
 5        13.02900                0.6164620
 6         1.827730               0.2210060
 S   3
 1        20.96420                0.114660 
 2         4.803310               0.919999 
 3         1.459330              -0.00303068 
 S   1
 1         0.4834560              1.000000  
 S   1
 1         0.1455850              1.000000  
 S   1
 1         0.0438000              1.0000000  
 P   3
 1        20.96420                0.0402487
 2         4.803310               0.237594
 3         1.459330               0.815854
 P   1
 1         0.4834560              1.000000
 P   1
 1         0.1455850              1.000000
 P   1
 1         0.0438000              1.0000000
 D   1
 1         1.2520000              1.0000000
 D   1
 1         0.3130000              1.0000000

C    6.0    -0.1134812373 4.3608532108 0.0000000000
 S   6
 1      4563.240                  0.00196665
 2       682.0240                 0.0152306
 3       154.9730                 0.0761269
 4        44.45530                0.2608010
 5        13.02900                0.6164620
 6         1.827730               0.2210060
 S   3
 1        20.96420                0.114660 
 2         4.803310               0.919999 
 3         1.459330              -0.00303068 
 S   1
 1         0.4834560              1.000000  
 S   1
 1         0.1455850              1.000000  
 S   1
 1         0.0438000              1.0000000  
 P   3
 1        20.96420                0.0402487
 2         4.803310               0.237594
 3         1.459330               0.815854
 P   1
 1         0.4834560              1.000000
 P   1
 1         0.1455850              1.000000
 P   1
 1         0.0438000              1.0000000
 D   1
 1         1.2520000              1.0000000
 D   1
 1         0.3130000              1.0000000

N    7.0    -0.9559023996 3.2695609212 0.0000000000
 S   6
 1      6293.480                  0.00196979
 2       949.0440                 0.0149613
 3       218.7760                 0.0735006
 4        63.69160                0.2489370
 5        18.82820                0.6024600
 6         2.720230               0.2562020
 S   3
 1        30.63310                0.111906         
 2         7.026140               0.921666        
 3         2.112050              -0.00256919     
 S   1
 1         0.684009               1.000000      
 S   1
 1         0.200878               1.000000     
 S   1
 1         0.0639000              1.0000000   
 P   3
 1        30.63310                0.0383119
 2         7.026140               0.237403
 3         2.112050               0.817592
 P   1
 1         0.684009               1.000000
 P   1
 1         0.200878               1.000000
 P   1
 1         0.0639000              1.0000000
 D   1
 1         1.8260000              1.0000000
 D   1
 1         0.4565000              1.0000000

O    8.0    -0.5595643026 5.4731303553 0.0000000000
 S   6
 1      8588.500                  0.00189515
 2      1297.230                  0.0143859
 3       299.2960                 0.0707320
 4        87.37710                0.2400010
 5        25.67890                0.5947970
 6         3.740040               0.2808020
 S   3
 1        42.11750                0.113889          
 2         9.628370               0.920811         
 3         2.853320              -0.00327447      
 S   1
 1         0.905661               1.000000       
 S   1
 1         0.255611               1.000000      
 S   1
 1         0.0845000              1.0000000    
 P   3
 1        42.11750                0.0365114
 2         9.628370               0.237153
 3         2.853320               0.819702
 P   1
 1         0.905661               1.000000
 P   1
 1         0.255611               1.000000
 P   1
 1         0.0845000              1.0000000
 D   1
 1         2.5840000              1.0000000
 D   1
 1         0.6460000              1.0000000

H    1.0    2.0093551260 4.8432819809 0.0000000000
 S   3
 1        33.86500                0.0254938
 2         5.094790               0.190373
 3         1.158790               0.852161
 S   1
 1         0.325840               1.000000
 S   1
 1         0.102741               1.000000
 S   1
 1         0.0360000              1.0000000
 P   1
 1         1.5000000              1.0000000
 P   1
 1         0.3750000              1.0000000

H    1.0    1.0628926336 0.7905260097 0.0000000000
 S   3
 1        33.86500                0.0254938
 2         5.094790               0.190373
 3         1.158790               0.852161
 S   1
 1         0.325840               1.000000
 S   1
 1         0.102741               1.000000
 S   1
 1         0.0360000              1.0000000
 P   1
 1         1.5000000              1.0000000
 P   1
 1         0.3750000              1.0000000

H    1.0    -1.9425620286 3.4575686925 0.0000000000
 S   3
 1        33.86500                0.0254938
 2         5.094790               0.190373
 3         1.158790               0.852161
 S   1
 1         0.325840               1.000000
 S   1
 1         0.102741               1.000000
 S   1
 1         0.0360000              1.0000000
 P   1
 1         1.5000000              1.0000000
 P   1
 1         0.3750000              1.0000000

H    1.0    2.6953907247 2.4569057696 0.0000000000
 S   3
 1        33.86500                0.0254938
 2         5.094790               0.190373
 3         1.158790               0.852161
 S   1
 1         0.325840               1.000000
 S   1
 1         0.102741               1.000000
 S   1
 1         0.0360000              1.0000000
 P   1
 1         1.5000000              1.0000000
 P   1
 1         0.3750000              1.0000000

O    8.0    1.4339804057 -1.0687367902 0.0000000000
 S   6
 1      8588.500                  0.00189515
 2      1297.230                  0.0143859
 3       299.2960                 0.0707320
 4        87.37710                0.2400010
 5        25.67890                0.5947970
 6         3.740040               0.2808020
 S   3
 1        42.11750                0.113889          
 2         9.628370               0.920811         
 3         2.853320              -0.00327447      
 S   1
 1         0.905661               1.000000       
 S   1
 1         0.255611               1.000000      
 S   1
 1         0.0845000              1.0000000    
 P   3
 1        42.11750                0.0365114
 2         9.628370               0.237153
 3         2.853320               0.819702
 P   1
 1         0.905661               1.000000
 P   1
 1         0.255611               1.000000
 P   1
 1         0.0845000              1.0000000
 D   1
 1         2.5840000              1.0000000
 D   1
 1         0.6460000              1.0000000

C    6.0    0.6145513596 -1.9514345316 -0.0000000000
 S   6
 1      4563.240                  0.00196665
 2       682.0240                 0.0152306
 3       154.9730                 0.0761269
 4        44.45530                0.2608010
 5        13.02900                0.6164620
 6         1.827730               0.2210060
 S   3
 1        20.96420                0.114660 
 2         4.803310               0.919999 
 3         1.459330              -0.00303068 
 S   1
 1         0.4834560              1.000000  
 S   1
 1         0.1455850              1.000000  
 S   1
 1         0.0438000              1.0000000  
 P   3
 1        20.96420                0.0402487
 2         4.803310               0.237594
 3         1.459330               0.815854
 P   1
 1         0.4834560              1.000000
 P   1
 1         0.1455850              1.000000
 P   1
 1         0.0438000              1.0000000
 D   1
 1         1.2520000              1.0000000
 D   1
 1         0.3130000              1.0000000

N    7.0    -0.7190132160 -1.7165213518 0.0000000000
 S   6
 1      6293.480                  0.00196979
 2       949.0440                 0.0149613
 3       218.7760                 0.0735006
 4        63.69160                0.2489370
 5        18.82820                0.6024600
 6         2.720230               0.2562020
 S   3
 1        30.63310                0.111906         
 2         7.026140               0.921666        
 3         2.112050              -0.00256919     
 S   1
 1         0.684009               1.000000      
 S   1
 1         0.200878               1.000000     
 S   1
 1         0.0639000              1.0000000   
 P   3
 1        30.63310                0.0383119
 2         7.026140               0.237403
 3         2.112050               0.817592
 P   1
 1         0.684009               1.000000
 P   1
 1         0.200878               1.000000
 P   1
 1         0.0639000              1.0000000
 D   1
 1         1.8260000              1.0000000
 D   1
 1         0.4565000              1.0000000

C    6.0    -1.6389718347 -2.7255939290 -0.0000000000
 S   6
 1      4563.240                  0.00196665
 2       682.0240                 0.0152306
 3       154.9730                 0.0761269
 4        44.45530                0.2608010
 5        13.02900                0.6164620
 6         1.827730               0.2210060
 S   3
 1        20.96420                0.114660 
 2         4.803310               0.919999 
 3         1.459330              -0.00303068 
 S   1
 1         0.4834560              1.000000  
 S   1
 1         0.1455850              1.000000  
 S   1
 1         0.0438000              1.0000000  
 P   3
 1        20.96420                0.0402487
 2         4.803310               0.237594
 3         1.459330               0.815854
 P   1
 1         0.4834560              1.000000
 P   1
 1         0.1455850              1.000000
 P   1
 1         0.0438000              1.0000000
 D   1
 1         1.2520000              1.0000000
 D   1
 1         0.3130000              1.0000000

C    6.0    -1.2972590239 -4.0088374001 0.0000000000
 S   6
 1      4563.240                  0.00196665
 2       682.0240                 0.0152306
 3       154.9730                 0.0761269
 4        44.45530                0.2608010
 5        13.02900                0.6164620
 6         1.827730               0.2210060
 S   3
 1        20.96420                0.114660 
 2         4.803310               0.919999 
 3         1.459330              -0.00303068 
 S   1
 1         0.4834560              1.000000  
 S   1
 1         0.1455850              1.000000  
 S   1
 1         0.0438000              1.0000000  
 P   3
 1        20.96420                0.0402487
 2         4.803310               0.237594
 3         1.459330               0.815854
 P   1
 1         0.4834560              1.000000
 P   1
 1         0.1455850              1.000000
 P   1
 1         0.0438000              1.0000000
 D   1
 1         1.2520000              1.0000000
 D   1
 1         0.3130000              1.0000000

C    6.0    0.1162731857 -4.3615599595 -0.0000000000
 S   6
 1      4563.240                  0.00196665
 2       682.0240                 0.0152306
 3       154.9730                 0.0761269
 4        44.45530                0.2608010
 5        13.02900                0.6164620
 6         1.827730               0.2210060
 S   3
 1        20.96420                0.114660 
 2         4.803310               0.919999 
 3         1.459330              -0.00303068 
 S   1
 1         0.4834560              1.000000  
 S   1
 1         0.1455850              1.000000  
 S   1
 1         0.0438000              1.0000000  
 P   3
 1        20.96420                0.0402487
 2         4.803310               0.237594
 3         1.459330               0.815854
 P   1
 1         0.4834560              1.000000
 P   1
 1         0.1455850              1.000000
 P   1
 1         0.0438000              1.0000000
 D   1
 1         1.2520000              1.0000000
 D   1
 1         0.3130000              1.0000000

N    7.0    0.9695301603 -3.2631512919 -0.0000000000
 S   6
 1      6293.480                  0.00196979
 2       949.0440                 0.0149613
 3       218.7760                 0.0735006
 4        63.69160                0.2489370
 5        18.82820                0.6024600
 6         2.720230               0.2562020
 S   3
 1        30.63310                0.111906         
 2         7.026140               0.921666        
 3         2.112050              -0.00256919     
 S   1
 1         0.684009               1.000000      
 S   1
 1         0.200878               1.000000     
 S   1
 1         0.0639000              1.0000000   
 P   3
 1        30.63310                0.0383119
 2         7.026140               0.237403
 3         2.112050               0.817592
 P   1
 1         0.684009               1.000000
 P   1
 1         0.200878               1.000000
 P   1
 1         0.0639000              1.0000000
 D   1
 1         1.8260000              1.0000000
 D   1
 1         0.4565000              1.0000000

O    8.0    0.5622925758 -5.4639293491 -0.0000000000
 S   6
 1      8588.500                  0.00189515
 2      1297.230                  0.0143859
 3       299.2960                 0.0707320
 4        87.37710                0.2400010
 5        25.67890                0.5947970
 6         3.740040               0.2808020
 S   3
 1        42.11750                0.113889          
 2         9.628370               0.920811         
 3         2.853320              -0.00327447      
 S   1
 1         0.905661               1.000000       
 S   1
 1         0.255611               1.000000      
 S   1
 1         0.0845000              1.0000000    
 P   3
 1        42.11750                0.0365114
 2         9.628370               0.237153
 3         2.853320               0.819702
 P   1
 1         0.905661               1.000000
 P   1
 1         0.255611               1.000000
 P   1
 1         0.0845000              1.0000000
 D   1
 1         2.5840000              1.0000000
 D   1
 1         0.6460000              1.0000000

H    1.0    -2.0185397239 -4.7961052362 0.0000000000
 S   3
 1        33.86500                0.0254938
 2         5.094790               0.190373
 3         1.158790               0.852161
 S   1
 1         0.325840               1.000000
 S   1
 1         0.102741               1.000000
 S   1
 1         0.0360000              1.0000000
 P   1
 1         1.5000000              1.0000000
 P   1
 1         0.3750000              1.0000000

H    1.0    -1.0095744434 -0.7558220007 0.0000000000
 S   3
 1        33.86500                0.0254938
 2         5.094790               0.190373
 3         1.158790               0.852161
 S   1
 1         0.325840               1.000000
 S   1
 1         0.102741               1.000000
 S   1
 1         0.0360000              1.0000000
 P   1
 1         1.5000000              1.0000000
 P   1
 1         0.3750000              1.0000000

H    1.0    1.9453118785 -3.4543337522 -0.0000000000
 S   3
 1        33.86500                0.0254938
 2         5.094790               0.190373
 3         1.158790               0.852161
 S   1
 1         0.325840               1.000000
 S   1
 1         0.102741               1.000000
 S   1
 1         0.0360000              1.0000000
 P   1
 1         1.5000000              1.0000000
 P   1
 1         0.3750000              1.0000000

H    1.0    -2.6602660142 -2.4022351536 -0.0000000000
 S   3
 1        33.86500                0.0254938
 2         5.094790               0.190373
 3         1.158790               0.852161
 S   1
 1         0.325840               1.000000
 S   1
 1         0.102741               1.000000
 S   1
 1         0.0360000              1.0000000
 P   1
 1         1.5000000              1.0000000
 P   1
 1         0.3750000              1.0000000

O    8.0    -2.9530914464 8.6209076597 -0.0000000000
 S   6
 1      8588.500                  0.00189515
 2      1297.230                  0.0143859
 3       299.2960                 0.0707320
 4        87.37710                0.2400010
 5        25.67890                0.5947970
 6         3.740040               0.2808020
 S   3
 1        42.11750                0.113889          
 2         9.628370               0.920811         
 3         2.853320              -0.00327447      
 S   1
 1         0.905661               1.000000       
 S   1
 1         0.255611               1.000000      
 S   1
 1         0.0845000              1.0000000    
 P   3
 1        42.11750                0.0365114
 2         9.628370               0.237153
 3         2.853320               0.819702
 P   1
 1         0.905661               1.000000
 P   1
 1         0.255611               1.000000
 P   1
 1         0.0845000              1.0000000
 D   1
 1         2.5840000              1.0000000
 D   1
 1         0.6460000              1.0000000

C    6.0    -3.7189571782 7.7130512353 -0.0000000000
 S   6
 1      4563.240                  0.00196665
 2       682.0240                 0.0152306
 3       154.9730                 0.0761269
 4        44.45530                0.2608010
 5        13.02900                0.6164620
 6         1.827730               0.2210060
 S   3
 1        20.96420                0.114660 
 2         4.803310               0.919999 
 3         1.459330              -0.00303068 
 S   1
 1         0.4834560              1.000000  
 S   1
 1         0.1455850              1.000000  
 S   1
 1         0.0438000              1.0000000  
 P   3
 1        20.96420                0.0402487
 2         4.803310               0.237594
 3         1.459330               0.815854
 P   1
 1         0.4834560              1.000000
 P   1
 1         0.1455850              1.000000
 P   1
 1         0.0438000              1.0000000
 D   1
 1         1.2520000              1.0000000
 D   1
 1         0.3130000              1.0000000

N    7.0    -5.0791752358 7.9074641037 -0.0000000000
 S   6
 1      6293.480                  0.00196979
 2       949.0440                 0.0149613
 3       218.7760                 0.0735006
 4        63.69160                0.2489370
 5        18.82820                0.6024600
 6         2.720230               0.2562020
 S   3
 1        30.63310                0.111906         
 2         7.026140               0.921666        
 3         2.112050              -0.00256919     
 S   1
 1         0.684009               1.000000      
 S   1
 1         0.200878               1.000000     
 S   1
 1         0.0639000              1.0000000   
 P   3
 1        30.63310                0.0383119
 2         7.026140               0.237403
 3         2.112050               0.817592
 P   1
 1         0.684009               1.000000
 P   1
 1         0.200878               1.000000
 P   1
 1         0.0639000              1.0000000
 D   1
 1         1.8260000              1.0000000
 D   1
 1         0.4565000              1.0000000

H    1.0    -5.3757972750 8.8529817319 -0.0000000000
 S   3
 1        33.86500                0.0254938
 2         5.094790               0.190373
 3         1.158790               0.852161
 S   1
 1         0.325840               1.000000
 S   1
 1         0.102741               1.000000
 S   1
 1         0.0360000              1.0000000
 P   1
 1         1.5000000              1.0000000
 P   1
 1         0.3750000              1.0000000

H    1.0    -7.0098939705 7.1745814994 -0.0000000000
 S   3
 1        33.86500                0.0254938
 2         5.094790               0.190373
 3         1.158790               0.852161
 S   1
 1         0.325840               1.000000
 S   1
 1         0.102741               1.000000
 S   1
 1         0.0360000              1.0000000
 P   1
 1         1.5000000              1.0000000
 P   1
 1         0.3750000              1.0000000

C    6.0    -5.9786681704 6.8833296349 0.0000000000
 S   6
 1      4563.240                  0.00196665
 2       682.0240                 0.0152306
 3       154.9730                 0.0761269
 4        44.45530                0.2608010
 5        13.02900                0.6164620
 6         1.827730               0.2210060
 S   3
 1        20.96420                0.114660 
 2         4.803310               0.919999 
 3         1.459330              -0.00303068 
 S   1
 1         0.4834560              1.000000  
 S   1
 1         0.1455850              1.000000  
 S   1
 1         0.0438000              1.0000000  
 P   3
 1        20.96420                0.0402487
 2         4.803310               0.237594
 3         1.459330               0.815854
 P   1
 1         0.4834560              1.000000
 P   1
 1         0.1455850              1.000000
 P   1
 1         0.0438000              1.0000000
 D   1
 1         1.2520000              1.0000000
 D   1
 1         0.3130000              1.0000000

C    6.0    -5.5974586013 5.6123691408 0.0000000000
 S   6
 1      4563.240                  0.00196665
 2       682.0240                 0.0152306
 3       154.9730                 0.0761269
 4        44.45530                0.2608010
 5        13.02900                0.6164620
 6         1.827730               0.2210060
 S   3
 1        20.96420                0.114660 
 2         4.803310               0.919999 
 3         1.459330              -0.00303068 
 S   1
 1         0.4834560              1.000000  
 S   1
 1         0.1455850              1.000000  
 S   1
 1         0.0438000              1.0000000  
 P   3
 1        20.96420                0.0402487
 2         4.803310               0.237594
 3         1.459330               0.815854
 P   1
 1         0.4834560              1.000000
 P   1
 1         0.1455850              1.000000
 P   1
 1         0.0438000              1.0000000
 D   1
 1         1.2520000              1.0000000
 D   1
 1         0.3130000              1.0000000

H    1.0    -6.2926134940 4.8021732497 -0.0000000000
 S   3
 1        33.86500                0.0254938
 2         5.094790               0.190373
 3         1.158790               0.852161
 S   1
 1         0.325840               1.000000
 S   1
 1         0.102741               1.000000
 S   1
 1         0.0360000              1.0000000
 P   1
 1         1.5000000              1.0000000
 P   1
 1         0.3750000              1.0000000

O    8.0    -3.7274171907 4.1941406636 -0.0000000000
 S   6
 1      8588.500                  0.00189515
 2      1297.230                  0.0143859
 3       299.2960                 0.0707320
 4        87.37710                0.2400010
 5        25.67890                0.5947970
 6         3.740040               0.2808020
 S   3
 1        42.11750                0.113889          
 2         9.628370               0.920811         
 3         2.853320              -0.00327447      
 S   1
 1         0.905661               1.000000       
 S   1
 1         0.255611               1.000000      
 S   1
 1         0.0845000              1.0000000    
 P   3
 1        42.11750                0.0365114
 2         9.628370               0.237153
 3         2.853320               0.819702
 P   1
 1         0.905661               1.000000
 P   1
 1         0.255611               1.000000
 P   1
 1         0.0845000              1.0000000
 D   1
 1         2.5840000              1.0000000
 D   1
 1         0.6460000              1.0000000

C    6.0    -4.1727088329 5.3079483757 0.0000000000
 S   6
 1      4563.240                  0.00196665
 2       682.0240                 0.0152306
 3       154.9730                 0.0761269
 4        44.45530                0.2608010
 5        13.02900                0.6164620
 6         1.827730               0.2210060
 S   3
 1        20.96420                0.114660 
 2         4.803310               0.919999 
 3         1.459330              -0.00303068 
 S   1
 1         0.4834560              1.000000  
 S   1
 1         0.1455850              1.000000  
 S   1
 1         0.0438000              1.0000000  
 P   3
 1        20.96420                0.0402487
 2         4.803310               0.237594
 3         1.459330               0.815854
 P   1
 1         0.4834560              1.000000
 P   1
 1         0.1455850              1.000000
 P   1
 1         0.0438000              1.0000000
 D   1
 1         1.2520000              1.0000000
 D   1
 1         0.3130000              1.0000000

N    7.0    -3.3393471234 6.4001321375 -0.0000000000
 S   6
 1      6293.480                  0.00196979
 2       949.0440                 0.0149613
 3       218.7760                 0.0735006
 4        63.69160                0.2489370
 5        18.82820                0.6024600
 6         2.720230               0.2562020
 S   3
 1        30.63310                0.111906         
 2         7.026140               0.921666        
 3         2.112050              -0.00256919     
 S   1
 1         0.684009               1.000000      
 S   1
 1         0.200878               1.000000     
 S   1
 1         0.0639000              1.0000000   
 P   3
 1        30.63310                0.0383119
 2         7.026140               0.237403
 3         2.112050               0.817592
 P   1
 1         0.684009               1.000000
 P   1
 1         0.200878               1.000000
 P   1
 1         0.0639000              1.0000000
 D   1
 1         1.8260000              1.0000000
 D   1
 1         0.4565000              1.0000000

H    1.0    -2.3516098844 6.2185366220 -0.0000000000
 S   3
 1        33.86500                0.0254938