 $scf dirscf=.t. damp=.t. shift=.f.
   soscf=.f. diis=.t. fdiff=.f. extrap=.f. $end
 $system mwords=500 memddi=500 $end
 $intgrl schwrz=.t. intomp=1 shfock=.f. $end
 $guess guess=hcore $end
 $contrl scftyp=rhf runtyp=energy nprint=-5
     icharg=0 ispher=0 inttyp=eric 
     maxit=100 $end
 $end
 $data
2-pyrodixine_2_2-aminopyridine 
C1
O    8.0    -2.3144259385 -0.9439933541 0.9734964338
 S   7
 1  31660948.4326500              0.00000005
 2   1341747.4801660              0.00000251
 3     86856.41933057             0.00006440
 4      8588.5000000              0.00098884
 5      1297.2300000              0.00798975
 6       299.2960000              0.03894177
 7         3.7400400              0.43596773
 S   1
 1        87.3771000              1.00000000
 S   1
 1        42.1175000              1.00000000
 S   1
 1        25.6789000              1.00000000
 S   1
 1         9.6283700              1.00000000
 S   1
 1         2.8533200              1.00000000
 S   1
 1         0.9056610              1.00000000
 S   1
 1         0.2556110              1.00000000
 S   1
 1         0.0845000              1.00000000
 P   4
 1       238.82507403             0.00071107
 2        42.1175000              0.01088929
 3         9.6283700              0.07471358
 4         2.8533200              0.25205556
 P   1
 1         0.9056610              1.00000000
 P   1
 1         0.2556110              1.00000000
 P   1
 1         0.0845000              1.00000000
 D   1
 1         1.2920000              1.00000000

N    7.0    -1.3160540813 0.6462559630 2.2707768243
 S   7
 1  23421322.3838400              0.00000006
 2    988674.6264273              0.00000262
 3     63798.90182836             0.00006752
 4      6293.4800000              0.00103995
 5       949.0440000              0.00840880
 6       218.7760000              0.04094490
 7         2.7202300              0.43311373
 S   1
 1        63.6916000              1.00000000
 S   1
 1        30.6331000              1.00000000
 S   1
 1        18.8282000              1.00000000
 S   1
 1         7.0261400              1.00000000
 S   1
 1         2.1120500              1.00000000
 S   1
 1         0.6840090              1.00000000
 S   1
 1         0.2008780              1.00000000
 S   1
 1         0.0639000              1.00000000
 P   4
 1       175.03570330             0.00074214
 2        30.6331000              0.01117529
 3         7.0261400              0.07350563
 4         2.1120500              0.24667585
 P   1
 1         0.6840090              1.00000000
 P   1
 1         0.2008780              1.00000000
 P   1
 1         0.0639000              1.00000000
 D   1
 1         0.9130000              1.00000000

C    6.0    -3.3407190951 0.5180064510 4.0939863437
 S   7
 1  16876193.1394200              0.00000006
 2    717812.0184378              0.00000265
 3     46416.99275025             0.00006807
 4      4563.2400000              0.00105552
 5       682.0240000              0.00866603
 6       154.9730000              0.04301032
 7         1.8277300              0.43340136
 S   1
 1        44.4553000              1.00000000
 S   1
 1        20.9642000              1.00000000
 S   1
 1        13.0290000              1.00000000
 S   1
 1         4.8033100              1.00000000
 S   1
 1         1.4593300              1.00000000
 S   1
 1         0.4834560              1.00000000
 S   1
 1         0.1455850              1.00000000
 S   1
 1         0.0438000              1.00000000
 P   4
 1       121.32953805             0.00075096
 2        20.9642000              0.01110197
 3         4.8033100              0.07021793
 4         1.4593300              0.23201981
 P   1
 1         0.4834560              1.00000000
 P   1
 1         0.1455850              1.00000000
 P   1
 1         0.0438000              1.00000000
 D   1
 1         0.6260000              1.00000000

C    6.0    -2.2584972356 1.4092529991 4.3043460782
 S   7
 1  16876193.1394200              0.00000006
 2    717812.0184378              0.00000265
 3     46416.99275025             0.00006807
 4      4563.2400000              0.00105552
 5       682.0240000              0.00866603
 6       154.9730000              0.04301032
 7         1.8277300              0.43340136
 S   1
 1        44.4553000              1.00000000
 S   1
 1        20.9642000              1.00000000
 S   1
 1        13.0290000              1.00000000
 S   1
 1         4.8033100              1.00000000
 S   1
 1         1.4593300              1.00000000
 S   1
 1         0.4834560              1.00000000
 S   1
 1         0.1455850              1.00000000
 S   1
 1         0.0438000              1.00000000
 P   4
 1       121.32953805             0.00075096
 2        20.9642000              0.01110197
 3         4.8033100              0.07021793
 4         1.4593300              0.23201981
 P   1
 1         0.4834560              1.00000000
 P   1
 1         0.1455850              1.00000000
 P   1
 1         0.0438000              1.00000000
 D   1
 1         0.6260000              1.00000000

C    6.0    -1.2697306358 1.4391634763 3.3675998008
 S   7
 1  16876193.1394200              0.00000006
 2    717812.0184378              0.00000265
 3     46416.99275025             0.00006807
 4      4563.2400000              0.00105552
 5       682.0240000              0.00866603
 6       154.9730000              0.04301032
 7         1.8277300              0.43340136
 S   1
 1        44.4553000              1.00000000
 S   1
 1        20.9642000              1.00000000
 S   1
 1        13.0290000              1.00000000
 S   1
 1         4.8033100              1.00000000
 S   1
 1         1.4593300              1.00000000
 S   1
 1         0.4834560              1.00000000
 S   1
 1         0.1455850              1.00000000
 S   1
 1         0.0438000              1.00000000
 P   4
 1       121.32953805             0.00075096
 2        20.9642000              0.01110197
 3         4.8033100              0.07021793
 4         1.4593300              0.23201981
 P   1
 1         0.4834560              1.00000000
 P   1
 1         0.1455850              1.00000000
 P   1
 1         0.0438000              1.00000000
 D   1
 1         0.6260000              1.00000000

C    6.0    -2.3441096545 -0.2511462795 1.9999082272
 S   7
 1  16876193.1394200              0.00000006
 2    717812.0184378              0.00000265
 3     46416.99275025             0.00006807
 4      4563.2400000              0.00105552
 5       682.0240000              0.00866603
 6       154.9730000              0.04301032
 7         1.8277300              0.43340136
 S   1
 1        44.4553000              1.00000000
 S   1
 1        20.9642000              1.00000000
 S   1
 1        13.0290000              1.00000000
 S   1
 1         4.8033100              1.00000000
 S   1
 1         1.4593300              1.00000000
 S   1
 1         0.4834560              1.00000000
 S   1
 1         0.1455850              1.00000000
 S   1
 1         0.0438000              1.00000000
 P   4
 1       121.32953805             0.00075096
 2        20.9642000              0.01110197
 3         4.8033100              0.07021793
 4         1.4593300              0.23201981
 P   1
 1         0.4834560              1.00000000
 P   1
 1         0.1455850              1.00000000
 P   1
 1         0.0438000              1.00000000
 D   1
 1         0.6260000              1.00000000

C    6.0    -3.3893468627 -0.2814716493 2.9908586844
 S   7
 1  16876193.1394200              0.00000006
 2    717812.0184378              0.00000265
 3     46416.99275025             0.00006807
 4      4563.2400000              0.00105552
 5       682.0240000              0.00866603
 6       154.9730000              0.04301032
 7         1.8277300              0.43340136
 S   1
 1        44.4553000              1.00000000
 S   1
 1        20.9642000              1.00000000
 S   1
 1        13.0290000              1.00000000
 S   1
 1         4.8033100              1.00000000
 S   1
 1         1.4593300              1.00000000
 S   1
 1         0.4834560              1.00000000
 S   1
 1         0.1455850              1.00000000
 S   1
 1         0.0438000              1.00000000
 P   4
 1       121.32953805             0.00075096
 2        20.9642000              0.01110197
 3         4.8033100              0.07021793
 4         1.4593300              0.23201981
 P   1
 1         0.4834560              1.00000000
 P   1
 1         0.1455850              1.00000000
 P   1
 1         0.0438000              1.00000000
 D   1
 1         0.6260000              1.00000000

H    1.0    -4.1402582847 0.4719646429 4.8229418226
 S 3
 1    118753.0892189              0.00000034
 2      5170.23631942             0.00001503
 3       340.31345127             0.00037853
 S   1
 1        33.8650000              1.00000000
 S   1
 1         5.0947900              1.00000000
 S   1
 1         1.1587900              1.00000000
 S   1
 1         0.3258400              1.00000000
 S   1
 1         0.1027410              1.00000000
 S   1
 1         0.0360000              1.00000000
 P   1
 1         0.7500000              1.00000000

H    1.0    -2.2095311165 2.0452532851 5.1740747809
 S 3
 1    118753.0892189              0.00000034
 2      5170.23631942             0.00001503
 3       340.31345127             0.00037853
 S   1
 1        33.8650000              1.00000000
 S   1
 1         5.0947900              1.00000000
 S   1
 1         1.1587900              1.00000000
 S   1
 1         0.3258400              1.00000000
 S   1
 1         0.1027410              1.00000000
 S   1
 1         0.0360000              1.00000000
 P   1
 1         0.7500000              1.00000000

H    1.0    -0.4058074344 2.0846317395 3.4434933208
 S 3
 1    118753.0892189              0.00000034
 2      5170.23631942             0.00001503
 3       340.31345127             0.00037853
 S   1
 1        33.8650000              1.00000000
 S   1
 1         5.0947900              1.00000000
 S   1
 1         1.1587900              1.00000000
 S   1
 1         0.3258400              1.00000000
 S   1
 1         0.1027410              1.00000000
 S   1
 1         0.0360000              1.00000000
 P   1
 1         0.7500000              1.00000000

H    1.0    -4.2029765513 -0.9683828871 2.8116423477
 S 3
 1    118753.0892189              0.00000034
 2      5170.23631942             0.00001503
 3       340.31345127             0.00037853
 S   1
 1        33.8650000              1.00000000
 S   1
 1         5.0947900              1.00000000
 S   1
 1         1.1587900              1.00000000
 S   1
 1         0.3258400              1.00000000
 S   1
 1         0.1027410              1.00000000
 S   1
 1         0.0360000              1.00000000
 P   1
 1         0.7500000              1.00000000

H    1.0    -0.5469698757 0.6926935130 1.5730060245
 S 3
 1    118753.0892189              0.00000034
 2      5170.23631942             0.00001503
 3       340.31345127             0.00037853
 S   1
 1        33.8650000              1.00000000
 S   1
 1         5.0947900              1.00000000
 S   1
 1         1.1587900              1.00000000
 S   1
 1         0.3258400              1.00000000
 S   1
 1         0.1027410              1.00000000
 S   1
 1         0.0360000              1.00000000
 P   1
 1         0.7500000              1.00000000

N    7.0    0.8436625273 0.7700727471 0.3481959448
 S   7
 1  23421322.3838400              0.00000006
 2    988674.6264273              0.00000262
 3     63798.90182836             0.00006752
 4      6293.4800000              0.00103995
 5       949.0440000              0.00840880
 6       218.7760000              0.04094490
 7         2.7202300              0.43311373
 S   1
 1        63.6916000              1.00000000
 S   1
 1        30.6331000              1.00000000
 S   1
 1        18.8282000              1.00000000
 S   1
 1         7.0261400              1.00000000
 S   1
 1         2.1120500              1.00000000
 S   1
 1         0.6840090              1.00000000
 S   1
 1         0.2008780              1.00000000
 S   1
 1         0.0639000              1.00000000
 P   4
 1       175.03570330             0.00074214
 2        30.6331000              0.01117529
 3         7.0261400              0.07350563
 4         2.1120500              0.24667585
 P   1
 1         0.6840090              1.00000000
 P   1
 1         0.2008780              1.00000000
 P   1
 1         0.0639000              1.00000000
 D   1
 1         0.9130000              1.00000000

C    6.0    0.8447980023 -0.0055277407 -0.7502355154
 S   7
 1  16876193.1394200              0.00000006
 2    717812.0184378              0.00000265
 3     46416.99275025             0.00006807
 4      4563.2400000              0.00105552
 5       682.0240000              0.00866603
 6       154.9730000              0.04301032
 7         1.8277300              0.43340136
 S   1
 1        44.4553000              1.00000000
 S   1
 1        20.9642000              1.00000000
 S   1
 1        13.0290000              1.00000000
 S   1
 1         4.8033100              1.00000000
 S   1
 1         1.4593300              1.00000000
 S   1
 1         0.4834560              1.00000000
 S   1
 1         0.1455850              1.00000000
 S   1
 1         0.0438000              1.00000000
 P   4
 1       121.32953805             0.00075096
 2        20.9642000              0.01110197
 3         4.8033100              0.07021793
 4         1.4593300              0.23201981
 P   1
 1         0.4834560              1.00000000
 P   1
 1         0.1455850              1.00000000
 P   1
 1         0.0438000              1.00000000
 D   1
 1         0.6260000              1.00000000

C    6.0    1.9492132912 -0.0326360610 -1.6306286112
 S   7
 1  16876193.1394200              0.00000006
 2    717812.0184378              0.00000265
 3     46416.99275025             0.00006807
 4      4563.2400000              0.00105552
 5       682.0240000              0.00866603
 6       154.9730000              0.04301032
 7         1.8277300              0.43340136
 S   1
 1        44.4553000              1.00000000
 S   1
 1        20.9642000              1.00000000
 S   1
 1        13.0290000              1.00000000
 S   1
 1         4.8033100              1.00000000
 S   1
 1         1.4593300              1.00000000
 S   1
 1         0.4834560              1.00000000
 S   1
 1         0.1455850              1.00000000
 S   1
 1         0.0438000              1.00000000
 P   4
 1       121.32953805             0.00075096
 2        20.9642000              0.01110197
 3         4.8033100              0.07021793
 4         1.4593300              0.23201981
 P   1
 1         0.4834560              1.00000000
 P   1
 1         0.1455850              1.00000000
 P   1
 1         0.0438000              1.00000000
 D   1
 1         0.6260000              1.00000000

C    6.0    3.0422550103 0.7546349859 -1.3502192955
 S   7
 1  16876193.1394200              0.00000006
 2    717812.0184378              0.00000265
 3     46416.99275025             0.00006807
 4      4563.2400000              0.00105552
 5       682.0240000              0.00866603
 6       154.9730000              0.04301032
 7         1.8277300              0.43340136
 S   1
 1        44.4553000              1.00000000
 S   1
 1        20.9642000              1.00000000
 S   1
 1        13.0290000              1.00000000
 S   1
 1         4.8033100              1.00000000
 S   1
 1         1.4593300              1.00000000
 S   1
 1         0.4834560              1.00000000
 S   1
 1         0.1455850              1.00000000
 S   1
 1         0.0438000              1.00000000
 P   4
 1       121.32953805             0.00075096
 2        20.9642000              0.01110197
 3         4.8033100              0.07021793
 4         1.4593300              0.23201981
 P   1
 1         0.4834560              1.00000000
 P   1
 1         0.1455850              1.00000000
 P   1
 1         0.0438000              1.00000000
 D   1
 1         0.6260000              1.00000000

C    6.0    3.0419169378 1.5628306870 -0.2081639727
 S   7
 1  16876193.1394200              0.00000006
 2    717812.0184378              0.00000265
 3     46416.99275025             0.00006807
 4      4563.2400000              0.00105552
 5       682.0240000              0.00866603
 6       154.9730000              0.04301032
 7         1.8277300              0.43340136
 S   1
 1        44.4553000              1.00000000
 S   1
 1        20.9642000              1.00000000
 S   1
 1        13.0290000              1.00000000
 S   1
 1         4.8033100              1.00000000
 S   1
 1         1.4593300              1.00000000
 S   1
 1         0.4834560              1.00000000
 S   1
 1         0.1455850              1.00000000
 S   1
 1         0.0438000              1.00000000
 P   4
 1       121.32953805             0.00075096
 2        20.9642000              0.01110197
 3         4.8033100              0.07021793
 4         1.4593300              0.23201981
 P   1
 1         0.4834560              1.00000000
 P   1
 1         0.1455850              1.00000000
 P   1
 1         0.0438000              1.00000000
 D   1
 1         0.6260000              1.00000000

C    6.0    1.9206340896 1.5268810103 0.5966751171
 S   7
 1  16876193.1394200              0.00000006
 2    717812.0184378              0.00000265
 3     46416.99275025             0.00006807
 4      4563.2400000              0.00105552
 5       682.0240000              0.00866603
 6       154.9730000              0.04301032
 7         1.8277300              0.43340136
 S   1
 1        44.4553000              1.00000000
 S   1
 1        20.9642000              1.00000000
 S   1
 1        13.0290000              1.00000000
 S   1
 1         4.8033100              1.00000000
 S   1
 1         1.4593300              1.00000000
 S   1
 1         0.4834560              1.00000000
 S   1
 1         0.1455850              1.00000000
 S   1
 1         0.0438000              1.00000000
 P   4
 1       121.32953805             0.00075096
 2        20.9642000              0.01110197
 3         4.8033100              0.07021793
 4         1.4593300              0.23201981
 P   1
 1         0.4834560              1.00000000
 P   1
 1         0.1455850              1.00000000
 P   1
 1         0.0438000              1.00000000
 D   1
 1         0.6260000              1.00000000

H    1.0    1.9095405807 -0.6671120397 -2.5058015359
 S 3
 1    118753.0892189              0.00000034
 2      5170.23631942             0.00001503
 3       340.31345127             0.00037853
 S   1
 1        33.8650000              1.00000000
 S   1
 1         5.0947900              1.00000000
 S   1
 1         1.1587900              1.00000000
 S   1
 1         0.3258400              1.00000000
 S   1
 1         0.1027410              1.00000000
 S   1
 1         0.0360000              1.00000000
 P   1
 1         0.7500000              1.00000000

H    1.0    3.8982200520 0.7455516158 -2.0125667982
 S 3
 1    118753.0892189              0.00000034
 2      5170.23631942             0.00001503
 3       340.31345127             0.00037853
 S   1
 1        33.8650000              1.00000000
 S   1
 1         5.0947900              1.00000000
 S   1
 1         1.1587900              1.00000000
 S   1
 1         0.3258400              1.00000000
 S   1
 1         0.1027410              1.00000000
 S   1
 1         0.0360000              1.00000000
 P   1
 1         0.7500000              1.00000000

H    1.0    3.8829253058 2.1918137495 0.0437952529
 S 3
 1    118753.0892189              0.00000034
 2      5170.23631942             0.00001503
 3       340.31345127             0.00037853
 S   1
 1        33.8650000              1.00000000
 S   1
 1         5.0947900              1.00000000
 S   1
 1         1.1587900              1.00000000
 S   1
 1         0.3258400              1.00000000
 S   1
 1         0.1027410              1.00000000
 S   1
 1         0.0360000              1.00000000
 P   1
 1         0.7500000              1.00000000

H    1.0    1.8729363896 2.1331492109 1.4948047103
 S 3
 1    118753.0892189              0.00000034
 2      5170.23631942             0.00001503
 3       340.31345127             0.00037853
 S   1
 1        33.8650000              1.00000000
 S   1
 1         5.0947900              1.00000000
 S   1
 1         1.1587900              1.00000000
 S   1
 1         0.3258400              1.00000000
 S   1
 1         0.1027410              1.00000000
 S   1
 1         0.0360000              1.00000000
 P   1
 1         0.7500000              1.00000000

N    7.0    -0.2761898033 -0.7377999045 -1.0190815481
 S   7
 1  23421322.3838400              0.00000006
 2    988674.6264273              0.00000262
 3     63798.90182836             0.00006752
 4      6293.4800000              0.00103995
 5       949.0440000              0.00840880
 6       218.7760000              0.04094490
 7         2.7202300              0.43311373
 S   1
 1        63.6916000              1.00000000
 S   1
 1        30.6331000              1.00000000
 S   1
 1        18.8282000              1.00000000
 S   1
 1         7.0261400              1.00000000
 S   1
 1         2.1120500              1.00000000
 S   1
 1         0.6840090              1.00000000
 S   1
 1         0.2008780              1.00000000
 S   1
 1         0.0639000              1.00000000
 P   4
 1       175.03570330             0.00074214
 2        30.6331000              0.01117529
 3         7.0261400              0.07350563
 4         2.1120500              0.24667585
 P   1
 1         0.6840090              1.00000000
 P   1
 1         0.2008780              1.00000000
 P   1
 1         0.0639000              1.00000000
 D   1
 1         0.9130000              1.00000000

H    1.0    -0.1727014830 -1.4814500443 -1.6991805664
 S 3
 1    118753.0892189              0.00000034
 2      5170.23631942             0.00001503
 3       340.31345127             0.00037853
 S   1
 1        33.8650000              1.00000000
 S   1
 1         5.0947900              1.00000000
 S   1
 1         1.1587900              1.00000000
 S   1
 1         0.3258400              1.00000000
 S   1
 1         0.1027410              1.00000000
 S   1
 1         0.0360000              1.00000000
 P   1
 1         0.7500000              1.00000000

H    1.0    -0.9665156246 -0.8699903287 -0.2753939967
 S 3
 1    118753.0892189              0.00000034
 2      5170.23631942             0.00001503
 3       340.31345127             0.00037853
 S   1
 1        33.8650000              1.00000000
 S   1
 1         5.0947900              1.00000000
 S   1
 1         1.1587900              1.00000000
 S   1
 1         0.3258400              1.00000000
 S   1
 1         0.1027410              1.00000000
 S   1
 1         0.0360000              1.00000000
 P   1
 1         0.7500000              1.00000000

C    6.0    -1.5652727365 -1.3728645048 -5.6502891628
 S   7
 1  16876193.1394200              0.00000006
 2    717812.0184378              0.00000265
 3     46416.99275025             0.00006807
 4      4563.2400000              0.00105552
 5       682.0240000              0.00866603
 6       154.9730000              0.04301032
 7         1.8277300              0.43340136
 S   1
 1        44.4553000              1.00000000
 S   1
 1        20.9642000              1.00000000
 S   1
 1        13.0290000              1.00000000
 S   1
 1         4.8033100              1.00000000
 S   1
 1         1.4593300              1.00000000
 S   1
 1         0.4834560              1.00000000
 S   1
 1         0.1455850              1.00000000
 S   1
 1         0.0438000              1.00000000
 P   4
 1       121.32953805             0.00075096
 2        20.9642000              0.01110197
 3         4.8033100              0.07021793
 4         1.4593300              0.23201981
 P   1
 1         0.4834560              1.00000000
 P   1
 1         0.1455850              1.00000000
 P   1
 1         0.0438000              1.00000000
 D   1
 1         0.6260000              1.00000000

C    6.0    -2.5144923136 -0.5362180417 -6.1575269959
 S   7
 1  16876193.1394200              0.00000006
 2    717812.0184378              0.00000265
 3     46416.99275025             0.00006807
 4      4563.2400000              0.00105552
 5       682.0240000              0.00866603
 6       154.9730000              0.04301032
 7         1.8277300              0.43340136
 S   1
 1        44.4553000              1.00000000
 S   1
 1        20.9642000              1.00000000
 S   1
 1        13.0290000              1.00000000
 S   1
 1         4.8033100              1.00000000
 S   1
 1         1.4593300              1.00000000
 S   1
 1         0.4834560              1.00000000
 S   1
 1         0.1455850              1.00000000
 S   1
 1         0.0438000              1.00000000
 P   4
 1       121.32953805             0.00075096
 2        20.9642000              0.01110197
 3         4.8033100              0.07021793
 4         1.4593300              0.23201981
 P   1
 1         0.4834560              1.00000000
 P   1
 1         0.1455850              1.00000000
 P   1
 1         0.0438000              1.00000000
 D   1
 1         0.6260000              1.00000000

H    1.0    -2.8822467224 -0.6943547561 -7.1637845704
 S 3
 1    118753.0892189              0.00000034
 2      5170.23631942             0.00001503
 3       340.31345127             0.00037853
 S   1
 1        33.8650000              1.00000000
 S   1
 1         5.0947900              1.00000000
 S   1
 1         1.1587900              1.00000000
 S   1
 1         0.3258400              1.00000000
 S   1
 1         0.1027410              1.00000000
 S   1
 1         0.0360000              1.00000000
 P   1
 1         0.7500000              1.00000000

H    1.0    -1.1619813027 -2.1973391840 -6.2191890488
 S 3
 1    118753.0892189              0.00000034
 2      5170.23631942             0.00001503
 3       340.31345127             0.00037853
 S   1
 1        33.8650000              1.00000000
 S   1
 1         5.0947900              1.00000000
 S   1
 1         1.1587900              1.00000000
 S   1
 1         0.3258400              1.00000000
 S   1
 1         0.1027410              1.00000000
 S   1
 1         0.0360000              1.00000000
 P   1
 1         0.7500000              1.00000000

C    6.0    -3.0365081922 0.5385007040 -5.3923418706
 S   7
 1  16876193.1394200              0.00000006
 2    717812.0184378              0.00000265
 3     46416.99275025             0.00006807
 4      4563.2400000              0.00105552
 5       682.0240000              0.00866603
 6       154.9730000              0.04301032
 7         1.8277300              0.43340136
 S   1
 1        44.4553000              1.00000000
 S   1
 1        20.9642000              1.00000000
 S   1
 1        13.0290000              1.00000000
 S   1
 1         4.8033100              1.00000000
 S   1
 1         1.4593300              1.00000000
 S   1
 1         0.4834560              1.00000000
 S   1
 1         0.1455850              1.00000000
 S   1
 1         0.0438000              1.00000000
 P   4
 1       121.32953805             0.00075096
 2        20.9642000              0.01110197
 3         4.8033100              0.07021793
 4         1.4593300              0.23201981
 P   1
 1         0.4834560              1.00000000
 P   1
 1         0.1455850              1.00000000
 P   1
 1         0.0438000              1.00000000
 D   1
 1         0.6260000              1.00000000

H    1.0    -3.7885118986 1.2030079665 -5.7873721230
 S 3
 1    118753.0892189              0.00000034
 2      5170.23631942             0.00001503
 3       340.31345127             0.00037853
 S   1
 1        33.8650000              1.00000000
 S   1
 1         5.0947900              1.00000000
 S   1
 1         1.1587900              1.00000000
 S   1
 1         0.3258400              1.00000000
 S   1
 1         0.1027410              1.00000000
 S   1
 1         0.0360000              1.00000000
 P   1
 1         0.7500000              1.00000000

C    6.0    -2.5635952824 0.7076192230 -4.1280998199
 S   7
 1  16876193.1394200              0.00000006
 2    717812.0184378              0.00000265
 3     46416.99275025             0.00006807
 4      4563.2400000              0.00105552
 5       682.0240000              0.00866603
 6       154.9730000              0.04301032
 7         1.8277300              0.43340136
 S   1
 1        44.4553000              1.00000000
 S   1
 1        20.9642000              1.00000000
 S   1
 1        13.0290000              1.00000000
 S   1
 1         4.8033100              1.00000000
 S   1
 1         1.4593300              1.00000000
 S   1
 1         0.4834560              1.00000000
 S   1
 1         0.1455850              1.00000000
 S   1
 1         0.0438000              1.00000000
 P   4
 1       121.32953805             0.00075096
 2        20.9642000              0.01110197
 3         4.8033100              0.07021793
 4         1.4593300              0.23201981
 P   1
 1         0.4834560              1.00000000
 P   1
 1         0.1455850              1.00000000
 P   1
 1         0.0438000              1.00000000
 D   1
 1         0.6260000              1.00000000

H    1.0    -2.9060610067 1.4907389960 -3.4667936409
 S 3
 1    118753.0892189              0.00000034
 2      5170.23631942             0.00001503
 3       340.31345127             0.00037853
 S   1
 1        33.8650000              1.00000000
 S   1
 1         5.0947900              1.00000000
 S   1
 1         1.1587900              1.00000000
 S   1
 1         0.3258400              1.00000000
 S   1
 1         0.1027410              1.00000000
 S   1