 $scf dirscf=.t. damp=.t. shift=.f.
   soscf=.f. diis=.t. fdiff=.f. extrap=.f. $end
 $system mwords=500 memddi=500 $end
 $intgrl schwrz=.t. intomp=1 shfock=.f. $end
 $guess guess=hcore $end
 $contrl scftyp=rhf runtyp=energy nprint=-5
     icharg=0 ispher=0 inttyp=eric 
     maxit=100 $end
 $end
 $data
2-pyrodixine_2-aminopyridine_2 
C1
O    8.0    0.4346708419 -0.9710625227 -0.5252195446
 S   7
 1  31660948.4326500              0.00000005
 2   1341747.4801660              0.00000251
 3     86856.41933057             0.00006440
 4      8588.5000000              0.00098884
 5      1297.2300000              0.00798975
 6       299.2960000              0.03894177
 7         3.7400400              0.43596773
 S   1
 1        87.3771000              1.00000000
 S   1
 1        42.1175000              1.00000000
 S   1
 1        25.6789000              1.00000000
 S   1
 1         9.6283700              1.00000000
 S   1
 1         2.8533200              1.00000000
 S   1
 1         0.9056610              1.00000000
 S   1
 1         0.2556110              1.00000000
 S   1
 1         0.0845000              1.00000000
 P   4
 1       238.82507403             0.00071107
 2        42.1175000              0.01088929
 3         9.6283700              0.07471358
 4         2.8533200              0.25205556
 P   1
 1         0.9056610              1.00000000
 P   1
 1         0.2556110              1.00000000
 P   1
 1         0.0845000              1.00000000
 D   1
 1         1.2920000              1.00000000

N    7.0    -0.7161576345 0.6230629410 0.6184480693
 S   7
 1  23421322.3838400              0.00000006
 2    988674.6264273              0.00000262
 3     63798.90182836             0.00006752
 4      6293.4800000              0.00103995
 5       949.0440000              0.00840880
 6       218.7760000              0.04094490
 7         2.7202300              0.43311373
 S   1
 1        63.6916000              1.00000000
 S   1
 1        30.6331000              1.00000000
 S   1
 1        18.8282000              1.00000000
 S   1
 1         7.0261400              1.00000000
 S   1
 1         2.1120500              1.00000000
 S   1
 1         0.6840090              1.00000000
 S   1
 1         0.2008780              1.00000000
 S   1
 1         0.0639000              1.00000000
 P   4
 1       175.03570330             0.00074214
 2        30.6331000              0.01117529
 3         7.0261400              0.07350563
 4         2.1120500              0.24667585
 P   1
 1         0.6840090              1.00000000
 P   1
 1         0.2008780              1.00000000
 P   1
 1         0.0639000              1.00000000
 D   1
 1         0.9130000              1.00000000

C    6.0    -2.6982850516 0.6471324262 -1.2467627619
 S   7
 1  16876193.1394200              0.00000006
 2    717812.0184378              0.00000265
 3     46416.99275025             0.00006807
 4      4563.2400000              0.00105552
 5       682.0240000              0.00866603
 6       154.9730000              0.04301032
 7         1.8277300              0.43340136
 S   1
 1        44.4553000              1.00000000
 S   1
 1        20.9642000              1.00000000
 S   1
 1        13.0290000              1.00000000
 S   1
 1         4.8033100              1.00000000
 S   1
 1         1.4593300              1.00000000
 S   1
 1         0.4834560              1.00000000
 S   1
 1         0.1455850              1.00000000
 S   1
 1         0.0438000              1.00000000
 P   4
 1       121.32953805             0.00075096
 2        20.9642000              0.01110197
 3         4.8033100              0.07021793
 4         1.4593300              0.23201981
 P   1
 1         0.4834560              1.00000000
 P   1
 1         0.1455850              1.00000000
 P   1
 1         0.0438000              1.00000000
 D   1
 1         0.6260000              1.00000000

C    6.0    -2.7929356602 1.4874388185 -0.1101426234
 S   7
 1  16876193.1394200              0.00000006
 2    717812.0184378              0.00000265
 3     46416.99275025             0.00006807
 4      4563.2400000              0.00105552
 5       682.0240000              0.00866603
 6       154.9730000              0.04301032
 7         1.8277300              0.43340136
 S   1
 1        44.4553000              1.00000000
 S   1
 1        20.9642000              1.00000000
 S   1
 1        13.0290000              1.00000000
 S   1
 1         4.8033100              1.00000000
 S   1
 1         1.4593300              1.00000000
 S   1
 1         0.4834560              1.00000000
 S   1
 1         0.1455850              1.00000000
 S   1
 1         0.0438000              1.00000000
 P   4
 1       121.32953805             0.00075096
 2        20.9642000              0.01110197
 3         4.8033100              0.07021793
 4         1.4593300              0.23201981
 P   1
 1         0.4834560              1.00000000
 P   1
 1         0.1455850              1.00000000
 P   1
 1         0.0438000              1.00000000
 D   1
 1         0.6260000              1.00000000

C    6.0    -1.7751182268 1.4482796431 0.7934900200
 S   7
 1  16876193.1394200              0.00000006
 2    717812.0184378              0.00000265
 3     46416.99275025             0.00006807
 4      4563.2400000              0.00105552
 5       682.0240000              0.00866603
 6       154.9730000              0.04301032
 7         1.8277300              0.43340136
 S   1
 1        44.4553000              1.00000000
 S   1
 1        20.9642000              1.00000000
 S   1
 1        13.0290000              1.00000000
 S   1
 1         4.8033100              1.00000000
 S   1
 1         1.4593300              1.00000000
 S   1
 1         0.4834560              1.00000000
 S   1
 1         0.1455850              1.00000000
 S   1
 1         0.0438000              1.00000000
 P   4
 1       121.32953805             0.00075096
 2        20.9642000              0.01110197
 3         4.8033100              0.07021793
 4         1.4593300              0.23201981
 P   1
 1         0.4834560              1.00000000
 P   1
 1         0.1455850              1.00000000
 P   1
 1         0.0438000              1.00000000
 D   1
 1         0.6260000              1.00000000

C    6.0    -0.5685544687 -0.2331418685 -0.4587591212
 S   7
 1  16876193.1394200              0.00000006
 2    717812.0184378              0.00000265
 3     46416.99275025             0.00006807
 4      4563.2400000              0.00105552
 5       682.0240000              0.00866603
 6       154.9730000              0.04301032
 7         1.8277300              0.43340136
 S   1
 1        44.4553000              1.00000000
 S   1
 1        20.9642000              1.00000000
 S   1
 1        13.0290000              1.00000000
 S   1
 1         4.8033100              1.00000000
 S   1
 1         1.4593300              1.00000000
 S   1
 1         0.4834560              1.00000000
 S   1
 1         0.1455850              1.00000000
 S   1
 1         0.0438000              1.00000000
 P   4
 1       121.32953805             0.00075096
 2        20.9642000              0.01110197
 3         4.8033100              0.07021793
 4         1.4593300              0.23201981
 P   1
 1         0.4834560              1.00000000
 P   1
 1         0.1455850              1.00000000
 P   1
 1         0.0438000              1.00000000
 D   1
 1         0.6260000              1.00000000

C    6.0    -1.6290960989 -0.1816770463 -1.4264168000
 S   7
 1  16876193.1394200              0.00000006
 2    717812.0184378              0.00000265
 3     46416.99275025             0.00006807
 4      4563.2400000              0.00105552
 5       682.0240000              0.00866603
 6       154.9730000              0.04301032
 7         1.8277300              0.43340136
 S   1
 1        44.4553000              1.00000000
 S   1
 1        20.9642000              1.00000000
 S   1
 1        13.0290000              1.00000000
 S   1
 1         4.8033100              1.00000000
 S   1
 1         1.4593300              1.00000000
 S   1
 1         0.4834560              1.00000000
 S   1
 1         0.1455850              1.00000000
 S   1
 1         0.0438000              1.00000000
 P   4
 1       121.32953805             0.00075096
 2        20.9642000              0.01110197
 3         4.8033100              0.07021793
 4         1.4593300              0.23201981
 P   1
 1         0.4834560              1.00000000
 P   1
 1         0.1455850              1.00000000
 P   1
 1         0.0438000              1.00000000
 D   1
 1         0.6260000              1.00000000

H    1.0    -3.4873264803 0.6691414712 -1.9879675949
 S 3
 1    118753.0892189              0.00000034
 2      5170.23631942             0.00001503
 3       340.31345127             0.00037853
 S   1
 1        33.8650000              1.00000000
 S   1
 1         5.0947900              1.00000000
 S   1
 1         1.1587900              1.00000000
 S   1
 1         0.3258400              1.00000000
 S   1
 1         0.1027410              1.00000000
 S   1
 1         0.0360000              1.00000000
 P   1
 1         0.7500000              1.00000000

H    1.0    -3.6338933989 2.1458639286 0.0409643105
 S 3
 1    118753.0892189              0.00000034
 2      5170.23631942             0.00001503
 3       340.31345127             0.00037853
 S   1
 1        33.8650000              1.00000000
 S   1
 1         5.0947900              1.00000000
 S   1
 1         1.1587900              1.00000000
 S   1
 1         0.3258400              1.00000000
 S   1
 1         0.1027410              1.00000000
 S   1
 1         0.0360000              1.00000000
 P   1
 1         0.7500000              1.00000000

H    1.0    -1.7514180371 2.0611142954 1.6833343443
 S 3
 1    118753.0892189              0.00000034
 2      5170.23631942             0.00001503
 3       340.31345127             0.00037853
 S   1
 1        33.8650000              1.00000000
 S   1
 1         5.0947900              1.00000000
 S   1
 1         1.1587900              1.00000000
 S   1
 1         0.3258400              1.00000000
 S   1
 1         0.1027410              1.00000000
 S   1
 1         0.0360000              1.00000000
 P   1
 1         0.7500000              1.00000000

H    1.0    -1.5308429905 -0.8151760313 -2.2950651385
 S 3
 1    118753.0892189              0.00000034
 2      5170.23631942             0.00001503
 3       340.31345127             0.00037853
 S   1
 1        33.8650000              1.00000000
 S   1
 1         5.0947900              1.00000000
 S   1
 1         1.1587900              1.00000000
 S   1
 1         0.3258400              1.00000000
 S   1
 1         0.1027410              1.00000000
 S   1
 1         0.0360000              1.00000000
 P   1
 1         0.7500000              1.00000000

H    1.0    0.0556941397 0.6340511358 1.3164610444
 S 3
 1    118753.0892189              0.00000034
 2      5170.23631942             0.00001503
 3       340.31345127             0.00037853
 S   1
 1        33.8650000              1.00000000
 S   1
 1         5.0947900              1.00000000
 S   1
 1         1.1587900              1.00000000
 S   1
 1         0.3258400              1.00000000
 S   1
 1         0.1027410              1.00000000
 S   1
 1         0.0360000              1.00000000
 P   1
 1         0.7500000              1.00000000

N    7.0    1.4393792439 0.8079621229 2.5083872680
 S   7
 1  23421322.3838400              0.00000006
 2    988674.6264273              0.00000262
 3     63798.90182836             0.00006752
 4      6293.4800000              0.00103995
 5       949.0440000              0.00840880
 6       218.7760000              0.04094490
 7         2.7202300              0.43311373
 S   1
 1        63.6916000              1.00000000
 S   1
 1        30.6331000              1.00000000
 S   1
 1        18.8282000              1.00000000
 S   1
 1         7.0261400              1.00000000
 S   1
 1         2.1120500              1.00000000
 S   1
 1         0.6840090              1.00000000
 S   1
 1         0.2008780              1.00000000
 S   1
 1         0.0639000              1.00000000
 P   4
 1       175.03570330             0.00074214
 2        30.6331000              0.01117529
 3         7.0261400              0.07350563
 4         2.1120500              0.24667585
 P   1
 1         0.6840090              1.00000000
 P   1
 1         0.2008780              1.00000000
 P   1
 1         0.0639000              1.00000000
 D   1
 1         0.9130000              1.00000000

C    6.0    2.6278150928 0.2247453272 2.2609600341
 S   7
 1  16876193.1394200              0.00000006
 2    717812.0184378              0.00000265
 3     46416.99275025             0.00006807
 4      4563.2400000              0.00105552
 5       682.0240000              0.00866603
 6       154.9730000              0.04301032
 7         1.8277300              0.43340136
 S   1
 1        44.4553000              1.00000000
 S   1
 1        20.9642000              1.00000000
 S   1
 1        13.0290000              1.00000000
 S   1
 1         4.8033100              1.00000000
 S   1
 1         1.4593300              1.00000000
 S   1
 1         0.4834560              1.00000000
 S   1
 1         0.1455850              1.00000000
 S   1
 1         0.0438000              1.00000000
 P   4
 1       121.32953805             0.00075096
 2        20.9642000              0.01110197
 3         4.8033100              0.07021793
 4         1.4593300              0.23201981
 P   1
 1         0.4834560              1.00000000
 P   1
 1         0.1455850              1.00000000
 P   1
 1         0.0438000              1.00000000
 D   1
 1         0.6260000              1.00000000

C    6.0    3.7501459937 0.4875347313 3.0814472022
 S   7
 1  16876193.1394200              0.00000006
 2    717812.0184378              0.00000265
 3     46416.99275025             0.00006807
 4      4563.2400000              0.00105552
 5       682.0240000              0.00866603
 6       154.9730000              0.04301032
 7         1.8277300              0.43340136
 S   1
 1        44.4553000              1.00000000
 S   1
 1        20.9642000              1.00000000
 S   1
 1        13.0290000              1.00000000
 S   1
 1         4.8033100              1.00000000
 S   1
 1         1.4593300              1.00000000
 S   1
 1         0.4834560              1.00000000
 S   1
 1         0.1455850              1.00000000
 S   1
 1         0.0438000              1.00000000
 P   4
 1       121.32953805             0.00075096
 2        20.9642000              0.01110197
 3         4.8033100              0.07021793
 4         1.4593300              0.23201981
 P   1
 1         0.4834560              1.00000000
 P   1
 1         0.1455850              1.00000000
 P   1
 1         0.0438000              1.00000000
 D   1
 1         0.6260000              1.00000000

C    6.0    3.6152188966 1.3477638092 4.1459123506
 S   7
 1  16876193.1394200              0.00000006
 2    717812.0184378              0.00000265
 3     46416.99275025             0.00006807
 4      4563.2400000              0.00105552
 5       682.0240000              0.00866603
 6       154.9730000              0.04301032
 7         1.8277300              0.43340136
 S   1
 1        44.4553000              1.00000000
 S   1
 1        20.9642000              1.00000000
 S   1
 1        13.0290000              1.00000000
 S   1
 1         4.8033100              1.00000000
 S   1
 1         1.4593300              1.00000000
 S   1
 1         0.4834560              1.00000000
 S   1
 1         0.1455850              1.00000000
 S   1
 1         0.0438000              1.00000000
 P   4
 1       121.32953805             0.00075096
 2        20.9642000              0.01110197
 3         4.8033100              0.07021793
 4         1.4593300              0.23201981
 P   1
 1         0.4834560              1.00000000
 P   1
 1         0.1455850              1.00000000
 P   1
 1         0.0438000              1.00000000
 D   1
 1         0.6260000              1.00000000

C    6.0    2.3776224672 1.9467839813 4.4042678246
 S   7
 1  16876193.1394200              0.00000006
 2    717812.0184378              0.00000265
 3     46416.99275025             0.00006807
 4      4563.2400000              0.00105552
 5       682.0240000              0.00866603
 6       154.9730000              0.04301032
 7         1.8277300              0.43340136
 S   1
 1        44.4553000              1.00000000
 S   1
 1        20.9642000              1.00000000
 S   1
 1        13.0290000              1.00000000
 S   1
 1         4.8033100              1.00000000
 S   1
 1         1.4593300              1.00000000
 S   1
 1         0.4834560              1.00000000
 S   1
 1         0.1455850              1.00000000
 S   1
 1         0.0438000              1.00000000
 P   4
 1       121.32953805             0.00075096
 2        20.9642000              0.01110197
 3         4.8033100              0.07021793
 4         1.4593300              0.23201981
 P   1
 1         0.4834560              1.00000000
 P   1
 1         0.1455850              1.00000000
 P   1
 1         0.0438000              1.00000000
 D   1
 1         0.6260000              1.00000000

C    6.0    1.3355088194 1.6375834145 3.5528622184
 S   7
 1  16876193.1394200              0.00000006
 2    717812.0184378              0.00000265
 3     46416.99275025             0.00006807
 4      4563.2400000              0.00105552
 5       682.0240000              0.00866603
 6       154.9730000              0.04301032
 7         1.8277300              0.43340136
 S   1
 1        44.4553000              1.00000000
 S   1
 1        20.9642000              1.00000000
 S   1
 1        13.0290000              1.00000000
 S   1
 1         4.8033100              1.00000000
 S   1
 1         1.4593300              1.00000000
 S   1
 1         0.4834560              1.00000000
 S   1
 1         0.1455850              1.00000000
 S   1
 1         0.0438000              1.00000000
 P   4
 1       121.32953805             0.00075096
 2        20.9642000              0.01110197
 3         4.8033100              0.07021793
 4         1.4593300              0.23201981
 P   1
 1         0.4834560              1.00000000
 P   1
 1         0.1455850              1.00000000
 P   1
 1         0.0438000              1.00000000
 D   1
 1         0.6260000              1.00000000

H    1.0    4.6966847483 0.0107072063 2.8645687432
 S 3
 1    118753.0892189              0.00000034
 2      5170.23631942             0.00001503
 3       340.31345127             0.00037853
 S   1
 1        33.8650000              1.00000000
 S   1
 1         5.0947900              1.00000000
 S   1
 1         1.1587900              1.00000000
 S   1
 1         0.3258400              1.00000000
 S   1
 1         0.1027410              1.00000000
 S   1
 1         0.0360000              1.00000000
 P   1
 1         0.7500000              1.00000000

H    1.0    4.4666416443 1.5573447862 4.7805204087
 S 3
 1    118753.0892189              0.00000034
 2      5170.23631942             0.00001503
 3       340.31345127             0.00037853
 S   1
 1        33.8650000              1.00000000
 S   1
 1         5.0947900              1.00000000
 S   1
 1         1.1587900              1.00000000
 S   1
 1         0.3258400              1.00000000
 S   1
 1         0.1027410              1.00000000
 S   1
 1         0.0360000              1.00000000
 P   1
 1         0.7500000              1.00000000

H    1.0    2.2337643520 2.6261373574 5.2309337289
 S 3
 1    118753.0892189              0.00000034
 2      5170.23631942             0.00001503
 3       340.31345127             0.00037853
 S   1
 1        33.8650000              1.00000000
 S   1
 1         5.0947900              1.00000000
 S   1
 1         1.1587900              1.00000000
 S   1
 1         0.3258400              1.00000000
 S   1
 1         0.1027410              1.00000000
 S   1
 1         0.0360000              1.00000000
 P   1
 1         0.7500000              1.00000000

H    1.0    0.3555481893 2.0766499306 3.7061272638
 S 3
 1    118753.0892189              0.00000034
 2      5170.23631942             0.00001503
 3       340.31345127             0.00037853
 S   1
 1        33.8650000              1.00000000
 S   1
 1         5.0947900              1.00000000
 S   1
 1         1.1587900              1.00000000
 S   1
 1         0.3258400              1.00000000
 S   1
 1         0.1027410              1.00000000
 S   1
 1         0.0360000              1.00000000
 P   1
 1         0.7500000              1.00000000

N    7.0    2.6991353332 -0.6255312254 1.2108223843
 S   7
 1  23421322.3838400              0.00000006
 2    988674.6264273              0.00000262
 3     63798.90182836             0.00006752
 4      6293.4800000              0.00103995
 5       949.0440000              0.00840880
 6       218.7760000              0.04094490
 7         2.7202300              0.43311373
 S   1
 1        63.6916000              1.00000000
 S   1
 1        30.6331000              1.00000000
 S   1
 1        18.8282000              1.00000000
 S   1
 1         7.0261400              1.00000000
 S   1
 1         2.1120500              1.00000000
 S   1
 1         0.6840090              1.00000000
 S   1
 1         0.2008780              1.00000000
 S   1
 1         0.0639000              1.00000000
 P   4
 1       175.03570330             0.00074214
 2        30.6331000              0.01117529
 3         7.0261400              0.07350563
 4         2.1120500              0.24667585
 P   1
 1         0.6840090              1.00000000
 P   1
 1         0.2008780              1.00000000
 P   1
 1         0.0639000              1.00000000
 D   1
 1         0.9130000              1.00000000

H    1.0    3.5867519698 -1.0040483330 0.9396509544
 S 3
 1    118753.0892189              0.00000034
 2      5170.23631942             0.00001503
 3       340.31345127             0.00037853
 S   1
 1        33.8650000              1.00000000
 S   1
 1         5.0947900              1.00000000
 S   1
 1         1.1587900              1.00000000
 S   1
 1         0.3258400              1.00000000
 S   1
 1         0.1027410              1.00000000
 S   1
 1         0.0360000              1.00000000
 P   1
 1         0.7500000              1.00000000

H    1.0    1.9010283558 -0.7625701794 0.5888872350
 S 3
 1    118753.0892189              0.00000034
 2      5170.23631942             0.00001503
 3       340.31345127             0.00037853
 S   1
 1        33.8650000              1.00000000
 S   1
 1         5.0947900              1.00000000
 S   1
 1         1.1587900              1.00000000
 S   1
 1         0.3258400              1.00000000
 S   1
 1         0.1027410              1.00000000
 S   1
 1         0.0360000              1.00000000
 P   1
 1         0.7500000              1.00000000

H    1.0    0.6177482546 -1.9988314428 -2.1255988249
 S 3
 1    118753.0892189              0.00000034
 2      5170.23631942             0.00001503
 3       340.31345127             0.00037853
 S   1
 1        33.8650000              1.00000000
 S   1
 1         5.0947900              1.00000000
 S   1
 1         1.1587900              1.00000000
 S   1
 1         0.3258400              1.00000000
 S   1
 1         0.1027410              1.00000000
 S   1
 1         0.0360000              1.00000000
 P   1
 1         0.7500000              1.00000000

N    7.0    0.6382231036 -2.6231452317 -2.9295248235
 S   7
 1  23421322.3838400              0.00000006
 2    988674.6264273              0.00000262
 3     63798.90182836             0.00006752
 4      6293.4800000              0.00103995
 5       949.0440000              0.00840880
 6       218.7760000              0.04094490
 7         2.7202300              0.43311373
 S   1
 1        63.6916000              1.00000000
 S   1
 1        30.6331000              1.00000000
 S   1
 1        18.8282000              1.00000000
 S   1
 1         7.0261400              1.00000000
 S   1
 1         2.1120500              1.00000000
 S   1
 1         0.6840090              1.00000000
 S   1
 1         0.2008780              1.00000000
 S   1
 1         0.0639000              1.00000000
 P   4
 1       175.03570330             0.00074214
 2        30.6331000              0.01117529
 3         7.0261400              0.07350563
 4         2.1120500              0.24667585
 P   1
 1         0.6840090              1.00000000
 P   1
 1         0.2008780              1.00000000
 P   1
 1         0.0639000              1.00000000
 D   1
 1         0.9130000              1.00000000

H    1.0    0.8307908035 -3.5892721201 -2.7344168988
 S 3
 1    118753.0892189              0.00000034
 2      5170.23631942             0.00001503
 3       340.31345127             0.00037853
 S   1
 1        33.8650000              1.00000000
 S   1
 1         5.0947900              1.00000000
 S   1
 1         1.1587900              1.00000000
 S   1
 1         0.3258400              1.00000000
 S   1
 1         0.1027410              1.00000000
 S   1
 1         0.0360000              1.00000000
 P   1
 1         0.7500000              1.00000000

C    6.0    1.0471706191 -2.1183965052 -4.1336880368
 S   7
 1  16876193.1394200              0.00000006
 2    717812.0184378              0.00000265
 3     46416.99275025             0.00006807
 4      4563.2400000              0.00105552
 5       682.0240000              0.00866603
 6       154.9730000              0.04301032
 7         1.8277300              0.43340136
 S   1
 1        44.4553000              1.00000000
 S   1
 1        20.9642000              1.00000000
 S   1
 1        13.0290000              1.00000000
 S   1
 1         4.8033100              1.00000000
 S   1
 1         1.4593300              1.00000000
 S   1
 1         0.4834560              1.00000000
 S   1
 1         0.1455850              1.00000000
 S   1
 1         0.0438000              1.00000000
 P   4
 1       121.32953805             0.00075096
 2        20.9642000              0.01110197
 3         4.8033100              0.07021793
 4         1.4593300              0.23201981
 P   1
 1         0.4834560              1.00000000
 P   1
 1         0.1455850              1.00000000
 P   1
 1         0.0438000              1.00000000
 D   1
 1         0.6260000              1.00000000

N    7.0    1.0396724235 -0.7838212793 -4.2637337137
 S   7
 1  23421322.3838400              0.00000006
 2    988674.6264273              0.00000262
 3     63798.90182836             0.00006752
 4      6293.4800000              0.00103995
 5       949.0440000              0.00840880
 6       218.7760000              0.04094490
 7         2.7202300              0.43311373
 S   1
 1        63.6916000              1.00000000
 S   1
 1        30.6331000              1.00000000
 S   1
 1        18.8282000              1.00000000
 S   1
 1         7.0261400              1.00000000
 S   1
 1         2.1120500              1.00000000
 S   1
 1         0.6840090              1.00000000
 S   1
 1         0.2008780              1.00000000
 S   1
 1         0.0639000              1.00000000
 P   4
 1       175.03570330             0.00074214
 2        30.6331000              0.01117529
 3         7.0261400              0.07350563
 4         2.1120500              0.24667585
 P   1
 1         0.6840090              1.00000000
 P   1
 1         0.2008780              1.00000000
 P   1
 1         0.0639000              1.00000000
 D   1
 1         0.9130000              1.00000000

C    6.0    1.4081863169 -0.2643814355 -5.4356331060
 S   7
 1  16876193.1394200              0.00000006
 2    717812.0184378              0.00000265
 3     46416.99275025             0.00006807
 4      4563.2400000              0.00105552
 5       682.0240000              0.00866603
 6       154.9730000              0.04301032
 7         1.8277300              0.43340136
 S   1
 1        44.4553000              1.00000000
 S   1
 1        20.9642000              1.00000000
 S   1
 1        13.0290000              1.00000000
 S   1
 1         4.8033100              1.00000000
 S   1
 1         1.4593300              1.00000000
 S   1
 1         0.4834560              1.00000000
 S   1
 1         0.1455850              1.00000000
 S   1
 1         0.0438000              1.00000000
 P   4
 1       121.32953805             0.00075096
 2        20.9642000              0.01110197
 3         4.8033100              0.07021793
 4         1.4593300              0.23201981
 P   1
 1         0.4834560              1.00000000
 P   1
 1         0.1455850              1.00000000
 P   1
 1         0.0438000              1.00000000
 D   1
 1         0.6260000              1.00000000

H    1.0    1.3909234154 0.8191808457 -5.4934189690
 S 3
 1    118753.0892189              0.00000034
 2      5170.23631942             0.00001503
 3       340.31345127             0.00037853
 S   1
 1        33.8650000              1.00000000
 S   1
 1         5.0947900              1.00000000
 S   1
 1         1.1587900              1.00000000
 S   1
 1         0.3258400              1.00000000
 S   1
 1         0.1027410              1.00000000
 S   1
 1         0.0360000              1.00000000
 P   1
 1         0.7500000              1.00000000

H    1.0    2.0893270607 -0.5343771558 -7.4585737812
 S 3
 1    118753.0892189              0.00000034
 2      5170.23631942             0.00001503
 3       340.31345127             0.00037853
 S   1
 1        33.8650000              1.00000000
 S   1
 1         5.0947900              1.00000000
 S   1
 1         1.1587900              1.00000000
 S   1
 1         0.3258400              1.00000000
 S   1
 1         0.1027410              1.00000000
 S   1
 1         0.0360000              1.00000000