 $scf dirscf=.t. damp=.t. shift=.f.
   soscf=.f. diis=.t. fdiff=.f. extrap=.f. $end
 $system mwords=500 memddi=500 $end
 $intgrl schwrz=.t. intomp=1 shfock=.f. $end
 $guess guess=hcore $end
 $contrl scftyp=rhf runtyp=energy nprint=-5
     icharg=0 ispher=0 inttyp=eric 
     maxit=200 $end
 $end
 $data
benzene_sandwich_trimer 
C1
C    6.0    0.0014414140 -0.0013980663 1.2100974771
 S   6
 1      4563.240                  0.00196665
 2       682.0240                 0.0152306
 3       154.9730                 0.0761269
 4        44.45530                0.2608010
 5        13.02900                0.6164620
 6         1.827730               0.2210060
 S   3
 1        20.96420                0.114660 
 2         4.803310               0.919999 
 3         1.459330              -0.00303068 
 S   1
 1         0.4834560              1.000000  
 S   1
 1         0.1455850              1.000000  
 S   1
 1         0.0438000              1.0000000  
 P   3
 1        20.96420                0.0402487
 2         4.803310               0.237594
 3         1.459330               0.815854
 P   1
 1         0.4834560              1.000000
 P   1
 1         0.1455850              1.000000
 P   1
 1         0.0438000              1.0000000
 D   1
 1         1.2520000              1.0000000
 D   1
 1         0.3130000              1.0000000

C    6.0    0.0041692296 -1.1976812353 1.9037908797
 S   6
 1      4563.240                  0.00196665
 2       682.0240                 0.0152306
 3       154.9730                 0.0761269
 4        44.45530                0.2608010
 5        13.02900                0.6164620
 6         1.827730               0.2210060
 S   3
 1        20.96420                0.114660 
 2         4.803310               0.919999 
 3         1.459330              -0.00303068 
 S   1
 1         0.4834560              1.000000  
 S   1
 1         0.1455850              1.000000  
 S   1
 1         0.0438000              1.0000000  
 P   3
 1        20.96420                0.0402487
 2         4.803310               0.237594
 3         1.459330               0.815854
 P   1
 1         0.4834560              1.000000
 P   1
 1         0.1455850              1.000000
 P   1
 1         0.0438000              1.0000000
 D   1
 1         1.2520000              1.0000000
 D   1
 1         0.3130000              1.0000000

C    6.0    0.0017053915 -1.1974448967 3.2869338541
 S   6
 1      4563.240                  0.00196665
 2       682.0240                 0.0152306
 3       154.9730                 0.0761269
 4        44.45530                0.2608010
 5        13.02900                0.6164620
 6         1.827730               0.2210060
 S   3
 1        20.96420                0.114660 
 2         4.803310               0.919999 
 3         1.459330              -0.00303068 
 S   1
 1         0.4834560              1.000000  
 S   1
 1         0.1455850              1.000000  
 S   1
 1         0.0438000              1.0000000  
 P   3
 1        20.96420                0.0402487
 2         4.803310               0.237594
 3         1.459330               0.815854
 P   1
 1         0.4834560              1.000000
 P   1
 1         0.1455850              1.000000
 P   1
 1         0.0438000              1.0000000
 D   1
 1         1.2520000              1.0000000
 D   1
 1         0.3130000              1.0000000

C    6.0    -0.0035609831 0.0006126850 3.9780906793
 S   6
 1      4563.240                  0.00196665
 2       682.0240                 0.0152306
 3       154.9730                 0.0761269
 4        44.45530                0.2608010
 5        13.02900                0.6164620
 6         1.827730               0.2210060
 S   3
 1        20.96420                0.114660 
 2         4.803310               0.919999 
 3         1.459330              -0.00303068 
 S   1
 1         0.4834560              1.000000  
 S   1
 1         0.1455850              1.000000  
 S   1
 1         0.0438000              1.0000000  
 P   3
 1        20.96420                0.0402487
 2         4.803310               0.237594
 3         1.459330               0.815854
 P   1
 1         0.4834560              1.000000
 P   1
 1         0.1455850              1.000000
 P   1
 1         0.0438000              1.0000000
 D   1
 1         1.2520000              1.0000000
 D   1
 1         0.3130000              1.0000000

C    6.0    -0.0063775123 1.1976841973 3.2851294600
 S   6
 1      4563.240                  0.00196665
 2       682.0240                 0.0152306
 3       154.9730                 0.0761269
 4        44.45530                0.2608010
 5        13.02900                0.6164620
 6         1.827730               0.2210060
 S   3
 1        20.96420                0.114660 
 2         4.803310               0.919999 
 3         1.459330              -0.00303068 
 S   1
 1         0.4834560              1.000000  
 S   1
 1         0.1455850              1.000000  
 S   1
 1         0.0438000              1.0000000  
 P   3
 1        20.96420                0.0402487
 2         4.803310               0.237594
 3         1.459330               0.815854
 P   1
 1         0.4834560              1.000000
 P   1
 1         0.1455850              1.000000
 P   1
 1         0.0438000              1.0000000
 D   1
 1         1.2520000              1.0000000
 D   1
 1         0.3130000              1.0000000

C    6.0    -0.0038695988 1.1958624016 1.9019884992
 S   6
 1      4563.240                  0.00196665
 2       682.0240                 0.0152306
 3       154.9730                 0.0761269
 4        44.45530                0.2608010
 5        13.02900                0.6164620
 6         1.827730               0.2210060
 S   3
 1        20.96420                0.114660 
 2         4.803310               0.919999 
 3         1.459330              -0.00303068 
 S   1
 1         0.4834560              1.000000  
 S   1
 1         0.1455850              1.000000  
 S   1
 1         0.0438000              1.0000000  
 P   3
 1        20.96420                0.0402487
 2         4.803310               0.237594
 3         1.459330               0.815854
 P   1
 1         0.4834560              1.000000
 P   1
 1         0.1455850              1.000000
 P   1
 1         0.0438000              1.0000000
 D   1
 1         1.2520000              1.0000000
 D   1
 1         0.3130000              1.0000000

H    1.0    0.0033900286 -0.0022193654 0.1397655288
 S   3
 1        33.86500                0.0254938
 2         5.094790               0.190373
 3         1.158790               0.852161
 S   1
 1         0.325840               1.000000
 S   1
 1         0.102741               1.000000
 S   1
 1         0.0360000              1.0000000
 P   1
 1         1.5000000              1.0000000
 P   1
 1         0.3750000              1.0000000

H    1.0    0.0083155811 -2.1265862458 1.3660211731
 S   3
 1        33.86500                0.0254938
 2         5.094790               0.190373
 3         1.158790               0.852161
 S   1
 1         0.325840               1.000000
 S   1
 1         0.102741               1.000000
 S   1
 1         0.0360000              1.0000000
 P   1
 1         1.5000000              1.0000000
 P   1
 1         0.3750000              1.0000000

H    1.0    0.0039761103 -2.1265549663 3.8244613592
 S   3
 1        33.86500                0.0254938
 2         5.094790               0.190373
 3         1.158790               0.852161
 S   1
 1         0.325840               1.000000
 S   1
 1         0.102741               1.000000
 S   1
 1         0.0360000              1.0000000
 P   1
 1         1.5000000              1.0000000
 P   1
 1         0.3750000              1.0000000

H    1.0    -0.0052821725 0.0014061491 5.0513761213
 S   3
 1        33.86500                0.0254938
 2         5.094790               0.190373
 3         1.158790               0.852161
 S   1
 1         0.325840               1.000000
 S   1
 1         0.102741               1.000000
 S   1
 1         0.0360000              1.0000000
 P   1
 1         1.5000000              1.0000000
 P   1
 1         0.3750000              1.0000000

H    1.0    -0.0104379124 2.1275807479 3.8212029416
 S   3
 1        33.86500                0.0254938
 2         5.094790               0.190373
 3         1.158790               0.852161
 S   1
 1         0.325840               1.000000
 S   1
 1         0.102741               1.000000
 S   1
 1         0.0360000              1.0000000
 P   1
 1         1.5000000              1.0000000
 P   1
 1         0.3750000              1.0000000

H    1.0    -0.0059401284 2.1238921781 1.3626376218
 S   3
 1        33.86500                0.0254938
 2         5.094790               0.190373
 3         1.158790               0.852161
 S   1
 1         0.325840               1.000000
 S   1
 1         0.102741               1.000000
 S   1
 1         0.0360000              1.0000000
 P   1
 1         1.5000000              1.0000000
 P   1
 1         0.3750000              1.0000000

C    6.0    -1.3840315807 0.0036762217 -2.4745695861
 S   6
 1      4563.240                  0.00196665
 2       682.0240                 0.0152306
 3       154.9730                 0.0761269
 4        44.45530                0.2608010
 5        13.02900                0.6164620
 6         1.827730               0.2210060
 S   3
 1        20.96420                0.114660 
 2         4.803310               0.919999 
 3         1.459330              -0.00303068 
 S   1
 1         0.4834560              1.000000  
 S   1
 1         0.1455850              1.000000  
 S   1
 1         0.0438000              1.0000000  
 P   3
 1        20.96420                0.0402487
 2         4.803310               0.237594
 3         1.459330               0.815854
 P   1
 1         0.4834560              1.000000
 P   1
 1         0.1455850              1.000000
 P   1
 1         0.0438000              1.0000000
 D   1
 1         1.2520000              1.0000000
 D   1
 1         0.3130000              1.0000000

C    6.0    -0.6878346115 1.1985199734 -2.4752548136
 S   6
 1      4563.240                  0.00196665
 2       682.0240                 0.0152306
 3       154.9730                 0.0761269
 4        44.45530                0.2608010
 5        13.02900                0.6164620
 6         1.827730               0.2210060
 S   3
 1        20.96420                0.114660 
 2         4.803310               0.919999 
 3         1.459330              -0.00303068 
 S   1
 1         0.4834560              1.000000  
 S   1
 1         0.1455850              1.000000  
 S   1
 1         0.0438000              1.0000000  
 P   3
 1        20.96420                0.0402487
 2         4.803310               0.237594
 3         1.459330               0.815854
 P   1
 1         0.4834560              1.000000
 P   1
 1         0.1455850              1.000000
 P   1
 1         0.0438000              1.0000000
 D   1
 1         1.2520000              1.0000000
 D   1
 1         0.3130000              1.0000000

C    6.0    0.6952353331 1.1934351108 -2.4760417136
 S   6
 1      4563.240                  0.00196665
 2       682.0240                 0.0152306
 3       154.9730                 0.0761269
 4        44.45530                0.2608010
 5        13.02900                0.6164620
 6         1.827730               0.2210060
 S   3
 1        20.96420                0.114660 
 2         4.803310               0.919999 
 3         1.459330              -0.00303068 
 S   1
 1         0.4834560              1.000000  
 S   1
 1         0.1455850              1.000000  
 S   1
 1         0.0438000              1.0000000  
 P   3
 1        20.96420                0.0402487
 2         4.803310               0.237594
 3         1.459330               0.815854
 P   1
 1         0.4834560              1.000000
 P   1
 1         0.1455850              1.000000
 P   1
 1         0.0438000              1.0000000
 D   1
 1         1.2520000              1.0000000
 D   1
 1         0.3130000              1.0000000

C    6.0    1.3824920574 -0.0065795059 -2.4762768572
 S   6
 1      4563.240                  0.00196665
 2       682.0240                 0.0152306
 3       154.9730                 0.0761269
 4        44.45530                0.2608010
 5        13.02900                0.6164620
 6         1.827730               0.2210060
 S   3
 1        20.96420                0.114660 
 2         4.803310               0.919999 
 3         1.459330              -0.00303068 
 S   1
 1         0.4834560              1.000000  
 S   1
 1         0.1455850              1.000000  
 S   1
 1         0.0438000              1.0000000  
 P   3
 1        20.96420                0.0402487
 2         4.803310               0.237594
 3         1.459330               0.815854
 P   1
 1         0.4834560              1.000000
 P   1
 1         0.1455850              1.000000
 P   1
 1         0.0438000              1.0000000
 D   1
 1         1.2520000              1.0000000
 D   1
 1         0.3130000              1.0000000

C    6.0    0.6863369105 -1.2014595049 -2.4756656611
 S   6
 1      4563.240                  0.00196665
 2       682.0240                 0.0152306
 3       154.9730                 0.0761269
 4        44.45530                0.2608010
 5        13.02900                0.6164620
 6         1.827730               0.2210060
 S   3
 1        20.96420                0.114660 
 2         4.803310               0.919999 
 3         1.459330              -0.00303068 
 S   1
 1         0.4834560              1.000000  
 S   1
 1         0.1455850              1.000000  
 S   1
 1         0.0438000              1.0000000  
 P   3
 1        20.96420                0.0402487
 2         4.803310               0.237594
 3         1.459330               0.815854
 P   1
 1         0.4834560              1.000000
 P   1
 1         0.1455850              1.000000
 P   1
 1         0.0438000              1.0000000
 D   1
 1         1.2520000              1.0000000
 D   1
 1         0.3130000              1.0000000

C    6.0    -0.6967292557 -1.1963026997 -2.4747584791
 S   6
 1      4563.240                  0.00196665
 2       682.0240                 0.0152306
 3       154.9730                 0.0761269
 4        44.45530                0.2608010
 5        13.02900                0.6164620
 6         1.827730               0.2210060
 S   3
 1        20.96420                0.114660 
 2         4.803310               0.919999 
 3         1.459330              -0.00303068 
 S   1
 1         0.4834560              1.000000  
 S   1
 1         0.1455850              1.000000  
 S   1
 1         0.0438000              1.0000000  
 P   3
 1        20.96420                0.0402487
 2         4.803310               0.237594
 3         1.459330               0.815854
 P   1
 1         0.4834560              1.000000
 P   1
 1         0.1455850              1.000000
 P   1
 1         0.0438000              1.0000000
 D   1
 1         1.2520000              1.0000000
 D   1
 1         0.3130000              1.0000000

H    1.0    -2.4567595336 0.0076650882 -2.4739299109
 S   3
 1        33.86500                0.0254938
 2         5.094790               0.190373
 3         1.158790               0.852161
 S   1
 1         0.325840               1.000000
 S   1
 1         0.102741               1.000000
 S   1
 1         0.0360000              1.0000000
 P   1
 1         1.5000000              1.0000000
 P   1
 1         0.3750000              1.0000000

H    1.0    -1.2213258933 2.1295223355 -2.4751476061
 S   3
 1        33.86500                0.0254938
 2         5.094790               0.190373
 3         1.158790               0.852161
 S   1
 1         0.325840               1.000000
 S   1
 1         0.102741               1.000000
 S   1
 1         0.0360000              1.0000000
 P   1
 1         1.5000000              1.0000000
 P   1
 1         0.3750000              1.0000000

H    1.0    1.2356356013 2.1204256254 -2.4767688138
 S   3
 1        33.86500                0.0254938
 2         5.094790               0.190373
 3         1.158790               0.852161
 S   1
 1         0.325840               1.000000
 S   1
 1         0.102741               1.000000
 S   1
 1         0.0360000              1.0000000
 P   1
 1         1.5000000              1.0000000
 P   1
 1         0.3750000              1.0000000

H    1.0    2.4552345029 -0.0105760780 -2.4768081286
 S   3
 1        33.86500                0.0254938
 2         5.094790               0.190373
 3         1.158790               0.852161
 S   1
 1         0.325840               1.000000
 S   1
 1         0.102741               1.000000
 S   1
 1         0.0360000              1.0000000
 P   1
 1         1.5000000              1.0000000
 P   1
 1         0.3750000              1.0000000

H    1.0    1.2198159066 -2.1324618324 -2.4756181791
 S   3
 1        33.86500                0.0254938
 2         5.094790               0.190373
 3         1.158790               0.852161
 S   1
 1         0.325840               1.000000
 S   1
 1         0.102741               1.000000
 S   1
 1         0.0360000              1.0000000
 P   1
 1         1.5000000              1.0000000
 P   1
 1         0.3750000              1.0000000

H    1.0    -1.2371427229 -2.1233014165 -2.4742595582
 S   3
 1        33.86500                0.0254938
 2         5.094790               0.190373
 3         1.158790               0.852161
 S   1
 1         0.325840               1.000000
 S   1
 1         0.102741               1.000000
 S   1
 1         0.0360000              1.0000000
 P   1
 1         1.5000000              1.0000000
 P   1
 1         0.3750000              1.0000000

H    1.0    -0.0511068555 -0.0109019786 -10.0025250621
 S   3
 1        33.86500                0.0254938
 2         5.094790               0.190373
 3         1.158790               0.852161
 S   1
 1         0.325840               1.000000
 S   1
 1         0.102741               1.000000
 S   1
 1         0.0360000              1.0000000
 P   1
 1         1.5000000              1.0000000
 P   1
 1         0.3750000              1.0000000

C    6.0    -0.0393088446 -0.0085115776 -8.9292904380
 S   6
 1      4563.240                  0.00196665
 2       682.0240                 0.0152306
 3       154.9730                 0.0761269
 4        44.45530                0.2608010
 5        13.02900                0.6164620
 6         1.827730               0.2210060
 S   3
 1        20.96420                0.114660 
 2         4.803310               0.919999 
 3         1.459330              -0.00303068 
 S   1
 1         0.4834560              1.000000  
 S   1
 1         0.1455850              1.000000  
 S   1
 1         0.0438000              1.0000000  
 P   3
 1        20.96420                0.0402487
 2         4.803310               0.237594
 3         1.459330               0.815854
 P   1
 1         0.4834560              1.000000
 P   1
 1         0.1455850              1.000000
 P   1
 1         0.0438000              1.0000000
 D   1
 1         1.2520000              1.0000000
 D   1
 1         0.3130000              1.0000000

H    1.0    -0.0290699708 -2.1352213637 -8.7695026570
 S   3
 1        33.86500                0.0254938
 2         5.094790               0.190373
 3         1.158790               0.852161
 S   1
 1         0.325840               1.000000
 S   1
 1         0.102741               1.000000
 S   1
 1         0.0360000              1.0000000
 P   1
 1         1.5000000              1.0000000
 P   1
 1         0.3750000              1.0000000

C    6.0    -0.0269911160 -1.2045679562 -8.2346967085
 S   6
 1      4563.240                  0.00196665
 2       682.0240                 0.0152306
 3       154.9730                 0.0761269
 4        44.45530                0.2608010
 5        13.02900                0.6164620
 6         1.827730               0.2210060
 S   3
 1        20.96420                0.114660 
 2         4.803310               0.919999 
 3         1.459330              -0.00303068 
 S   1
 1         0.4834560              1.000000  
 S   1
 1         0.1455850              1.000000  
 S   1
 1         0.0438000              1.0000000  
 P   3
 1        20.96420                0.0402487
 2         4.803310               0.237594
 3         1.459330               0.815854
 P   1
 1         0.4834560              1.000000
 P   1
 1         0.1455850              1.000000
 P   1
 1         0.0438000              1.0000000
 D   1
 1         1.2520000              1.0000000
 D   1
 1         0.3130000              1.0000000

H    1.0    -0.0460549162 2.1188501254 -8.7787017759
 S   3
 1        33.86500                0.0254938
 2         5.094790               0.190373
 3         1.158790               0.852161
 S   1
 1         0.325840               1.000000
 S   1
 1         0.102741               1.000000
 S   1
 1         0.0360000              1.0000000
 P   1
 1         1.5000000              1.0000000
 P   1
 1         0.3750000              1.0000000

C    6.0    -0.0366008039 1.1905610927 -8.2398491467
 S   6
 1      4563.240                  0.00196665
 2       682.0240                 0.0152306
 3       154.9730                 0.0761269
 4        44.45530                0.2608010
 5        13.02900                0.6164620
 6         1.827730               0.2210060
 S   3
 1        20.96420                0.114660 
 2         4.803310               0.919999 
 3         1.459330              -0.00303068 
 S   1
 1         0.4834560              1.000000  
 S   1
 1         0.1455850              1.000000  
 S   1
 1         0.0438000              1.0000000  
 P   3
 1        20.96420                0.0402487
 2         4.803310               0.237594
 3         1.459330               0.815854
 P   1
 1         0.4834560              1.000000
 P   1
 1         0.1455850              1.000000
 P   1
 1         0.0438000              1.0000000
 D   1
 1         1.2520000              1.0000000
 D   1
 1         0.3130000              1.0000000

C    6.0    -0.0216933527 1.1927918345 -6.8567778271
 S   6
 1      4563.240                  0.00196665
 2       682.0240                 0.0152306
 3       154.9730                 0.0761269
 4        44.45530                0.2608010
 5        13.02900                0.6164620
 6         1.827730               0.2210060
 S   3
 1        20.96420                0.114660 
 2         4.803310               0.919999 
 3         1.459330              -0.00303068 
 S   1
 1         0.4834560              1.000000  
 S   1
 1         0.1455850              1.000000  
 S   1
 1         0.0438000              1.0000000  
 P   3
 1        20.96420                0.0402487
 2         4.803310               0.237594
 3         1.459330               0.815854
 P   1
 1         0.4834560              1.000000
 P   1
 1         0.1455850              1.000000
 P   1
 1         0.0438000              1.0000000
 D   1
 1         1.2520000              1.0000000
 D   1
 1         0.3130000              1.0000000

H    1.0    -0.0196183807 2.1224903683 -6.3203317084
 S   3
 1        33.86500                0.0254938
 2         5.094790               0.190373
 3         1.158790               0.852161
 S   1
 1         0.325840               1.000000
 S   1
 1         0.102741               1.000000
 S   1
 1         0.0360000              1.0000000
 P   1
 1         1.5000000              1.0000000
 P   1
 1         0.3750000              1.0000000

C    6.0    -0.0092167169 -0.0024435929 -6.1614140298
 S   6
 1      4563.240                  0.00196665
 2       682.0240                 0.0152306
 3       154.9730                 0.0761269
 4        44.45530                0.2608010
 5        13.02900                0.6164620
 6         1.827730               0.2210060
 S   3
 1        20.96420                0.114660 
 2         4.803310               0.919999 
 3         1.459330              -0.00303068 
 S   1
 1         0.4834560              1.000000  
 S   1
 1         0.1455850              1.000000  
 S   1
 1         0.0438000              1.0000000  
 P   3
 1        20.96420                0.0402487
 2         4.803310               0.237594
 3         1.459330               0.815854
 P   1
 1         0.4834560              1.000000
 P   1
 1         0.1455850              1.000000
 P   1
 1         0.0438000              1.0000000
 D   1
 1         1.2520000              1.0000000
 D   1
 1         0.3130000              1.0000000

H    1.0    0.0023708197 -0.0000727014 -5.0911498316
 S   3
 1        33.86500                0.0254938
 2         5.094790               0.190373
 3         1.158790               0.852161
 S   1
 1         0.325840               1.000000
 S   1
 1         0.102741               1.000000
 S   1
 1         0.0360000              1.0000000
 P   1
 1         1.5000000              1.0000000
 P   1
 1         0.3750000              1.0000000

H    1.0    -0.0020823898 -2.1279380930 -6.3110326563
 S   3
 1        33.86500                0.0254938
 2         5.094790               0.190373
 3         1.158790               0.852161
 S   1
 1         0.325840               1.000000
 S   1
 1         0.102741               1.000000
 S   1
 1         0.0360000              1.0000000
 P   1
 1         1.5000000              1.0000000
 P   1
 1         0.3750000              1.0000000

C    6.0    -0.0117848665 -1.2006888558 -6.8516417678 
 S   6
 1      4563.240                  0.00196665
 2       682.0240                 0.0152306
 3       154.9730                 0.0761269
 4        44.45530                0.2608010
 5        13.02900                0.6164620
 6         1.827730               0.2210060
 S   3
 1        20.96420                0.114660 
 2         4.803310               0.919999 
 3         1.459330              -0.00303068 
 S   1
 1         0.4834560              1.000000  
 S   1
 1         0.1455850              1.000000  
 S   1
 1         0.0438000              1.0000000  
 P   3
 1        20.96420                0.0402487
 2         4.803310               0.237594
 3         1.459330               0.815854
 P   1
 1         0.4834560              1.000000
 P   1
 1         0.1455850              1.000000
 P   1
 1         0.0438000              1.0000000
 D   1
 1         1.2520000              1.0000000
 D   1
 1         0.3130000              1.0000000

 $end
