 $scf dirscf=.t. damp=.t. shift=.f.
   soscf=.f. diis=.t. fdiff=.f. extrap=.f. $end
 $system mwords=500 memddi=500 $end
 $intgrl schwrz=.t. intomp=1 shfock=.f. $end
 $guess guess=hcore $end
 $contrl scftyp=rhf runtyp=energy nprint=-5
     icharg=0 ispher=0 inttyp=eric 
     maxit=100 $end
 $end
 $data
formamide_trimer 
C1
C    6.0    -2.0608353401 0.1877925219 0.0723625908
 S   7
 1  16876193.1394200              0.00000006
 2    717812.0184378              0.00000265
 3     46416.99275025             0.00006807
 4      4563.2400000              0.00105552
 5       682.0240000              0.00866603
 6       154.9730000              0.04301032
 7         1.8277300              0.43340136
 S   1
 1        44.4553000              1.00000000
 S   1
 1        20.9642000              1.00000000
 S   1
 1        13.0290000              1.00000000
 S   1
 1         4.8033100              1.00000000
 S   1
 1         1.4593300              1.00000000
 S   1
 1         0.4834560              1.00000000
 S   1
 1         0.1455850              1.00000000
 S   1
 1         0.0438000              1.00000000
 P   4
 1       121.32953805             0.00075096
 2        20.9642000              0.01110197
 3         4.8033100              0.07021793
 4         1.4593300              0.23201981
 P   1
 1         0.4834560              1.00000000
 P   1
 1         0.1455850              1.00000000
 P   1
 1         0.0438000              1.00000000
 D   1
 1         0.6260000              1.00000000

O    8.0    -1.4859359282 1.2453104647 0.1359710572
 S   7
 1  31660948.4326500              0.00000005
 2   1341747.4801660              0.00000251
 3     86856.41933057             0.00006440
 4      8588.5000000              0.00098884
 5      1297.2300000              0.00798975
 6       299.2960000              0.03894177
 7         3.7400400              0.43596773
 S   1
 1        87.3771000              1.00000000
 S   1
 1        42.1175000              1.00000000
 S   1
 1        25.6789000              1.00000000
 S   1
 1         9.6283700              1.00000000
 S   1
 1         2.8533200              1.00000000
 S   1
 1         0.9056610              1.00000000
 S   1
 1         0.2556110              1.00000000
 S   1
 1         0.0845000              1.00000000
 P   4
 1       238.82507403             0.00071107
 2        42.1175000              0.01088929
 3         9.6283700              0.07471358
 4         2.8533200              0.25205556
 P   1
 1         0.9056610              1.00000000
 P   1
 1         0.2556110              1.00000000
 P   1
 1         0.0845000              1.00000000
 D   1
 1         1.2920000              1.00000000

N    7.0    -1.4741387221 -0.9924563200 -0.0414182631
 S   7
 1  23421322.3838400              0.00000006
 2    988674.6264273              0.00000262
 3     63798.90182836             0.00006752
 4      6293.4800000              0.00103995
 5       949.0440000              0.00840880
 6       218.7760000              0.04094490
 7         2.7202300              0.43311373
 S   1
 1        63.6916000              1.00000000
 S   1
 1        30.6331000              1.00000000
 S   1
 1        18.8282000              1.00000000
 S   1
 1         7.0261400              1.00000000
 S   1
 1         2.1120500              1.00000000
 S   1
 1         0.6840090              1.00000000
 S   1
 1         0.2008780              1.00000000
 S   1
 1         0.0639000              1.00000000
 P   4
 1       175.03570330             0.00074214
 2        30.6331000              0.01117529
 3         7.0261400              0.07350563
 4         2.1120500              0.24667585
 P   1
 1         0.6840090              1.00000000
 P   1
 1         0.2008780              1.00000000
 P   1
 1         0.0639000              1.00000000
 D   1
 1         0.9130000              1.00000000

H    1.0    -1.9813156455 -1.8420041967 -0.0908846585
 S 3
 1    118753.0892189              0.00000034
 2      5170.23631942             0.00001503
 3       340.31345127             0.00037853
 S   1
 1        33.8650000              1.00000000
 S   1
 1         5.0947900              1.00000000
 S   1
 1         1.1587900              1.00000000
 S   1
 1         0.3258400              1.00000000
 S   1
 1         0.1027410              1.00000000
 S   1
 1         0.0360000              1.00000000
 P   1
 1         0.7500000              1.00000000

H    1.0    -0.4811118359 -1.0525218998 -0.0810172272
 S 3
 1    118753.0892189              0.00000034
 2      5170.23631942             0.00001503
 3       340.31345127             0.00037853
 S   1
 1        33.8650000              1.00000000
 S   1
 1         5.0947900              1.00000000
 S   1
 1         1.1587900              1.00000000
 S   1
 1         0.3258400              1.00000000
 S   1
 1         0.1027410              1.00000000
 S   1
 1         0.0360000              1.00000000
 P   1
 1         0.7500000              1.00000000

H    1.0    -3.1487169252 0.1420161071 0.1065948800
 S 3
 1    118753.0892189              0.00000034
 2      5170.23631942             0.00001503
 3       340.31345127             0.00037853
 S   1
 1        33.8650000              1.00000000
 S   1
 1         5.0947900              1.00000000
 S   1
 1         1.1587900              1.00000000
 S   1
 1         0.3258400              1.00000000
 S   1
 1         0.1027410              1.00000000
 S   1
 1         0.0360000              1.00000000
 P   1
 1         0.7500000              1.00000000

C    6.0    2.1051042234 0.1953237780 -0.0730301621
 S   7
 1  16876193.1394200              0.00000006
 2    717812.0184378              0.00000265
 3     46416.99275025             0.00006807
 4      4563.2400000              0.00105552
 5       682.0240000              0.00866603
 6       154.9730000              0.04301032
 7         1.8277300              0.43340136
 S   1
 1        44.4553000              1.00000000
 S   1
 1        20.9642000              1.00000000
 S   1
 1        13.0290000              1.00000000
 S   1
 1         4.8033100              1.00000000
 S   1
 1         1.4593300              1.00000000
 S   1
 1         0.4834560              1.00000000
 S   1
 1         0.1455850              1.00000000
 S   1
 1         0.0438000              1.00000000
 P   4
 1       121.32953805             0.00075096
 2        20.9642000              0.01110197
 3         4.8033100              0.07021793
 4         1.4593300              0.23201981
 P   1
 1         0.4834560              1.00000000
 P   1
 1         0.1455850              1.00000000
 P   1
 1         0.0438000              1.00000000
 D   1
 1         0.6260000              1.00000000

O    8.0    1.6020518329 -0.8964358677 -0.1442341350
 S   7
 1  31660948.4326500              0.00000005
 2   1341747.4801660              0.00000251
 3     86856.41933057             0.00006440
 4      8588.5000000              0.00098884
 5      1297.2300000              0.00798975
 6       299.2960000              0.03894177
 7         3.7400400              0.43596773
 S   1
 1        87.3771000              1.00000000
 S   1
 1        42.1175000              1.00000000
 S   1
 1        25.6789000              1.00000000
 S   1
 1         9.6283700              1.00000000
 S   1
 1         2.8533200              1.00000000
 S   1
 1         0.9056610              1.00000000
 S   1
 1         0.2556110              1.00000000
 S   1
 1         0.0845000              1.00000000
 P   4
 1       238.82507403             0.00071107
 2        42.1175000              0.01088929
 3         9.6283700              0.07471358
 4         2.8533200              0.25205556
 P   1
 1         0.9056610              1.00000000
 P   1
 1         0.2556110              1.00000000
 P   1
 1         0.0845000              1.00000000
 D   1
 1         1.2920000              1.00000000

N    7.0    1.4443070486 1.3373245003 0.0424794469
 S   7
 1  23421322.3838400              0.00000006
 2    988674.6264273              0.00000262
 3     63798.90182836             0.00006752
 4      6293.4800000              0.00103995
 5       949.0440000              0.00840880
 6       218.7760000              0.04094490
 7         2.7202300              0.43311373
 S   1
 1        63.6916000              1.00000000
 S   1
 1        30.6331000              1.00000000
 S   1
 1        18.8282000              1.00000000
 S   1
 1         7.0261400              1.00000000
 S   1
 1         2.1120500              1.00000000
 S   1
 1         0.6840090              1.00000000
 S   1
 1         0.2008780              1.00000000
 S   1
 1         0.0639000              1.00000000
 P   4
 1       175.03570330             0.00074214
 2        30.6331000              0.01117529
 3         7.0261400              0.07350563
 4         2.1120500              0.24667585
 P   1
 1         0.6840090              1.00000000
 P   1
 1         0.2008780              1.00000000
 P   1
 1         0.0639000              1.00000000
 D   1
 1         0.9130000              1.00000000

H    1.0    1.9432570510 2.1900494227 0.0942767907
 S 3
 1    118753.0892189              0.00000034
 2      5170.23631942             0.00001503
 3       340.31345127             0.00037853
 S   1
 1        33.8650000              1.00000000
 S   1
 1         5.0947900              1.00000000
 S   1
 1         1.1587900              1.00000000
 S   1
 1         0.3258400              1.00000000
 S   1
 1         0.1027410              1.00000000
 S   1
 1         0.0360000              1.00000000
 P   1
 1         0.7500000              1.00000000

H    1.0    0.4408162968 1.3552126541 0.0784304340
 S 3
 1    118753.0892189              0.00000034
 2      5170.23631942             0.00001503
 3       340.31345127             0.00037853
 S   1
 1        33.8650000              1.00000000
 S   1
 1         5.0947900              1.00000000
 S   1
 1         1.1587900              1.00000000
 S   1
 1         0.3258400              1.00000000
 S   1
 1         0.1027410              1.00000000
 S   1
 1         0.0360000              1.00000000
 P   1
 1         0.7500000              1.00000000

H    1.0    3.1881153195 0.3111184338 -0.1010441672
 S 3
 1    118753.0892189              0.00000034
 2      5170.23631942             0.00001503
 3       340.31345127             0.00037853
 S   1
 1        33.8650000              1.00000000
 S   1
 1         5.0947900              1.00000000
 S   1
 1         1.1587900              1.00000000
 S   1
 1         0.3258400              1.00000000
 S   1
 1         0.1027410              1.00000000
 S   1
 1         0.0360000              1.00000000
 P   1
 1         0.7500000              1.00000000

O    8.0    -1.0384707338 -3.9232081530 -0.2927756696
 S   7
 1  31660948.4326500              0.00000005
 2   1341747.4801660              0.00000251
 3     86856.41933057             0.00006440
 4      8588.5000000              0.00098884
 5      1297.2300000              0.00798975
 6       299.2960000              0.03894177
 7         3.7400400              0.43596773
 S   1
 1        87.3771000              1.00000000
 S   1
 1        42.1175000              1.00000000
 S   1
 1        25.6789000              1.00000000
 S   1
 1         9.6283700              1.00000000
 S   1
 1         2.8533200              1.00000000
 S   1
 1         0.9056610              1.00000000
 S   1
 1         0.2556110              1.00000000
 S   1
 1         0.0845000              1.00000000
 P   4
 1       238.82507403             0.00071107
 2        42.1175000              0.01088929
 3         9.6283700              0.07471358
 4         2.8533200              0.25205556
 P   1
 1         0.9056610              1.00000000
 P   1
 1         0.2556110              1.00000000
 P   1
 1         0.0845000              1.00000000
 D   1
 1         1.2920000              1.00000000

C    6.0    0.0068230257 -4.4955722182 -0.3852859151
 S   7
 1  16876193.1394200              0.00000006
 2    717812.0184378              0.00000265
 3     46416.99275025             0.00006807
 4      4563.2400000              0.00105552
 5       682.0240000              0.00866603
 6       154.9730000              0.04301032
 7         1.8277300              0.43340136
 S   1
 1        44.4553000              1.00000000
 S   1
 1        20.9642000              1.00000000
 S   1
 1        13.0290000              1.00000000
 S   1
 1         4.8033100              1.00000000
 S   1
 1         1.4593300              1.00000000
 S   1
 1         0.4834560              1.00000000
 S   1
 1         0.1455850              1.00000000
 S   1
 1         0.0438000              1.00000000
 P   4
 1       121.32953805             0.00075096
 2        20.9642000              0.01110197
 3         4.8033100              0.07021793
 4         1.4593300              0.23201981
 P   1
 1         0.4834560              1.00000000
 P   1
 1         0.1455850              1.00000000
 P   1
 1         0.0438000              1.00000000
 D   1
 1         0.6260000              1.00000000

H    1.0    0.0507287822 -5.5817401831 -0.4806143222
 S 3
 1    118753.0892189              0.00000034
 2      5170.23631942             0.00001503
 3       340.31345127             0.00037853
 S   1
 1        33.8650000              1.00000000
 S   1
 1         5.0947900              1.00000000
 S   1
 1         1.1587900              1.00000000
 S   1
 1         0.3258400              1.00000000
 S   1
 1         0.1027410              1.00000000
 S   1
 1         0.0360000              1.00000000
 P   1
 1         0.7500000              1.00000000

N    7.0    1.2114032121 -3.9185441276 -0.3853810317
 S   7
 1  23421322.3838400              0.00000006
 2    988674.6264273              0.00000262
 3     63798.90182836             0.00006752
 4      6293.4800000              0.00103995
 5       949.0440000              0.00840880
 6       218.7760000              0.04094490
 7         2.7202300              0.43311373
 S   1
 1        63.6916000              1.00000000
 S   1
 1        30.6331000              1.00000000
 S   1
 1        18.8282000              1.00000000
 S   1
 1         7.0261400              1.00000000
 S   1
 1         2.1120500              1.00000000
 S   1
 1         0.6840090              1.00000000
 S   1
 1         0.2008780              1.00000000
 S   1
 1         0.0639000              1.00000000
 P   4
 1       175.03570330             0.00074214
 2        30.6331000              0.01117529
 3         7.0261400              0.07350563
 4         2.1120500              0.24667585
 P   1
 1         0.6840090              1.00000000
 P   1
 1         0.2008780              1.00000000
 P   1
 1         0.0639000              1.00000000
 D   1
 1         0.9130000              1.00000000

H    1.0    1.3150176573 -2.9305676342 -0.3045330020
 S 3
 1    118753.0892189              0.00000034
 2      5170.23631942             0.00001503
 3       340.31345127             0.00037853
 S   1
 1        33.8650000              1.00000000
 S   1
 1         5.0947900              1.00000000
 S   1
 1         1.1587900              1.00000000
 S   1
 1         0.3258400              1.00000000
 S   1
 1         0.1027410              1.00000000
 S   1
 1         0.0360000              1.00000000
 P   1
 1         0.7500000              1.00000000

H    1.0    2.0252114683 -4.4746351472 -0.4667868417
 S 3
 1    118753.0892189              0.00000034
 2      5170.23631942             0.00001503
 3       340.31345127             0.00037853
 S   1
 1        33.8650000              1.00000000
 S   1
 1         5.0947900              1.00000000
 S   1
 1         1.1587900              1.00000000
 S   1
 1         0.3258400              1.00000000
 S   1
 1         0.1027410              1.00000000
 S   1
 1         0.0360000              1.00000000
 P   1
 1         0.7500000              1.00000000

 $end
