 $CONTRL SCFTYP=RHF RUNTYP=energy icharg=0 ISPHER=1
  MAXIT=100 INTTYP=ERIC $END
 $system mwords=300 memddi=300 $end
 $BASIS GBASIS=N31 NGAUSS=6 $END
 $SCF    DAMP=.T. SOSCF=.F. DIIS=.T. EXTRAP=.F.
   DIRSCF=.T. FDIFF=.F. CONV=1.0d-6 $end 
 $guess guess=hcore $end
 $INTGRL SCHWRZ=.T. $END
 $DATA
  w_omprimp2
C1
O     8.0     1.20700    -1.20700     0.00000
H     1.0     0.84200    -2.01200     0.36800
H     1.0     1.25200    -1.36400    -0.94300
O     8.0    -1.07600     1.30800     0.23200
H     1.0    -0.48000     1.58400    -0.46400
H     1.0    -1.90700     1.74000     0.03300
O     8.0    -1.30300    -0.97100    -2.27400
H     1.0    -0.76600    -0.65000    -1.55000
H     1.0    -0.85700    -1.76100    -2.58100
O     8.0    -1.98700    -1.88900     0.94000
H     1.0    -1.85100    -1.07900     0.44900
H     1.0    -1.98000    -1.62600     1.86000
O     8.0     1.22000     1.31800    -2.26800
H     1.0     1.63200     0.45700    -2.33900
H     1.0     1.57400     1.69600    -1.46300
O     8.0     0.10100    -0.18800     3.03400
H     1.0    -0.68000     0.21500     2.65500
H     1.0    -0.11500    -0.32700     3.95600
O     8.0     2.13200     1.84100     1.05500
H     1.0     2.40400     2.10500     1.93400
H     1.0     2.90700     1.96700     0.50700
O     8.0    -0.35100     3.18200     2.95500
H     1.0    -0.72500     4.06100     3.01900
H     1.0    -1.03300     2.59800     3.28700
O     8.0     4.14900     0.09500    -1.05000
H     1.0     3.50800    -0.61600    -1.02300
H     1.0     4.51100     0.06900    -1.93500
O     8.0    -3.07000     0.87300     2.86900
H     1.0    -3.38700     1.49600     2.21500
H     1.0    -3.82100     0.70800     3.43800
O     8.0     0.61800    -3.48100     2.42800
H     1.0     0.65900    -3.19200     1.51600
H     1.0     0.52900    -4.43300     2.38200
O     8.0    -4.13800     0.24000    -0.48300
H     1.0    -4.08700    -0.53800     0.07100
H     1.0    -3.36000     0.20000    -1.03900
O     8.0    -0.26300    -4.04200    -0.95500
H     1.0     0.28400    -4.74300    -0.60100
H     1.0     0.15500    -3.23100    -0.66600
O     8.0     1.87400    -1.95100    -3.11800
H     1.0     2.81600    -2.12000    -3.10300
H     1.0     1.73900    -1.24600    -2.48500
O     8.0    -2.18000     2.21500    -2.75700
H     1.0    -2.01900     3.02300    -3.24500
H     1.0    -3.12000     2.05900    -2.84000
O     8.0     3.36900    -1.03600     2.44700
H     1.0     2.91300    -0.99800     1.60700
H     1.0     3.48800    -0.12200     2.70600
O     8.0     0.25400     4.16800    -0.61400
H     1.0    -0.31700     4.18100     0.15400
H     1.0     1.02200     4.67900    -0.36100
O     8.0    -3.23900     3.64700     0.56900
H     1.0    -3.34800     2.84000     0.06700
H     1.0    -3.93600     3.62700     1.22500
O     8.0     3.20600    -3.71700    -0.07800
H     1.0     3.68900    -4.46800    -0.42300
H     1.0     2.90300    -3.99400     0.78700
O     8.0    -3.70900    -3.15900    -1.59000
H     1.0    -4.06500    -3.74800    -0.92400
H     1.0    -2.97300    -2.72000    -1.16500
O     8.0    -2.19800    -2.27400     4.23200
H     1.0    -1.59900    -1.60300     4.55900
H     1.0    -1.68800    -3.08500     4.24000
O     8.0     2.47900     1.72300     4.37900
H     1.0     2.91800     1.30200     3.64100
H     1.0     2.66800     1.16300     5.13200
O     8.0     0.35900     4.07700    -4.00100
H     1.0     0.64900     4.10400    -4.91200
H     1.0    -0.11900     3.25200    -3.91700
O     8.0    -4.22000    -0.43000    -3.76600
H     1.0    -3.49600    -0.71700    -4.32300
H     1.0    -4.20000    -1.01700    -3.01000
O     8.0     3.49800     3.56900    -1.51600
H     1.0     2.69100     3.73800    -1.03000
H     1.0     3.80400     4.43100    -1.79700
O     8.0    -0.36900     0.58100    -5.08300
H     1.0    -0.54200    -0.35900    -5.13300
H     1.0     0.23700     0.75900    -5.80200
O     8.0    -1.13900    -3.54900    -4.22500
H     1.0    -1.89500    -3.00900    -4.45700
H     1.0    -1.46300    -4.15600    -3.56000
O     8.0    -1.13200     1.27100     5.68300
H     1.0    -2.05900     1.13500     5.48600
H     1.0    -0.72200     0.41700     5.54800
O     8.0     3.04300     2.03500    -4.83500
H     1.0     2.17900     1.84700    -5.20000
H     1.0     2.90900     2.78500    -4.25400
O     8.0    -2.30800    -5.06400     1.61000
H     1.0    -1.66900    -5.69000     1.26800
H     1.0    -3.05800    -5.59600     1.87600
O     8.0     5.31000     1.67700     1.80200
H     1.0     5.63300     2.57600     1.74300
H     1.0     6.04900     1.13000     1.53300
O     8.0     1.64600    -1.78900     5.36300
H     1.0     1.84000    -2.68100     5.07500
H     1.0     1.31700    -1.88200     6.25700
O     8.0    -5.00400    -1.92200     2.10700
H     1.0    -4.17100    -2.38000     1.99100
H     1.0    -4.78900    -1.14600     2.62400
O     8.0     2.49600     4.93500     1.90100
H     1.0     2.39800     5.17500     0.98000
H     1.0     1.69600     4.45600     2.11900
O     8.0    -2.33500     5.49700    -2.22900
H     1.0    -2.47900     5.60100    -1.28800
H     1.0    -1.41400     5.71800    -2.36500
O     8.0     1.97000    -5.27000    -3.05900
H     1.0     2.47200    -5.90300    -3.57300
H     1.0     2.07100    -5.55300    -2.15000
O     8.0     1.21000    -6.38100     0.80700
H     1.0     1.36300    -6.18000     1.73000
H     1.0     0.28100    -6.60300     0.75200
O     8.0    -5.28400     3.01200    -2.07100
H     1.0    -4.49600     2.49900    -1.89200
H     1.0    -6.01000     2.46000    -1.78200
O     8.0     5.04300    -2.80200    -2.70900
H     1.0     4.91500    -3.61800    -3.19300
H     1.0     5.99200    -2.68800    -2.66100
O     8.0     5.97300     1.89700    -3.15100
H     1.0     5.18600     2.44000    -3.10800
H     1.0     5.66400     1.03500    -3.43000
O     8.0     6.04500    -1.99000     0.62800
H     1.0     5.46000    -2.37700     1.27900
H     1.0     6.49100    -1.27800     1.08700
O     8.0    -1.15300     6.15600     1.57600
H     1.0    -1.69700     6.94100     1.51500
H     1.0    -0.25300     6.48100     1.61300
O     8.0     2.43800    -1.00600    -6.19900
H     1.0     3.05300    -0.79600    -6.90200
H     1.0     2.72600    -1.85500    -5.86400
O     8.0    -0.64800    -2.03000    -7.15700
H     1.0    -0.44600    -2.15600    -6.23000
H     1.0    -0.03000    -2.59200    -7.62400
O     8.0     3.75900    -4.25300     3.19100
H     1.0     4.00700    -3.59100     2.54600
H     1.0     3.74700    -3.79100     4.02900
O     8.0     2.24300     6.72100    -1.05100
H     1.0     3.12600     6.54000    -0.72800
H     1.0     2.36700     7.30200    -1.80100
O     8.0    -6.67800    -1.61900    -1.40800
H     1.0    -5.98900    -2.27000    -1.54400
H     1.0    -7.41100    -1.91700    -1.94600
O     8.0    -6.03400     1.94500     1.53800
H     1.0    -6.92200     2.29900     1.48900
H     1.0    -5.48400     2.59800     1.10500
O     8.0    -3.42900     4.03900     3.87600
H     1.0    -4.21800     4.56100     3.73100
H     1.0    -2.99000     4.45400     4.61800
O     8.0    -0.13600    -4.74200     5.35200
H     1.0    -0.41000    -5.59900     5.02700
H     1.0     0.79900    -4.68900     5.15500
 $END
