 $scf dirscf=.t. damp=.t. shift=.f.
   soscf=.f. diis=.t. fdiff=.f. extrap=.f. $end
 $system mwords=500 memddi=500 $end
 $intgrl schwrz=.t. intomp=1 shfock=.f. $end
 $guess guess=hcore $end
 $contrl scftyp=rhf runtyp=energy nprint=-5
     icharg=0 ispher=0 inttyp=eric 
     maxit=100 $end
 $end
 $data
phenol_trimer 
C1
C    6.0    -1.7010140459 0.9393040936 -0.5021806897
 S   7
 1  16876193.1394200              0.00000006
 2    717812.0184378              0.00000265
 3     46416.99275025             0.00006807
 4      4563.2400000              0.00105552
 5       682.0240000              0.00866603
 6       154.9730000              0.04301032
 7         1.8277300              0.43340136
 S   1
 1        44.4553000              1.00000000
 S   1
 1        20.9642000              1.00000000
 S   1
 1        13.0290000              1.00000000
 S   1
 1         4.8033100              1.00000000
 S   1
 1         1.4593300              1.00000000
 S   1
 1         0.4834560              1.00000000
 S   1
 1         0.1455850              1.00000000
 S   1
 1         0.0438000              1.00000000
 P   4
 1       121.32953805             0.00075096
 2        20.9642000              0.01110197
 3         4.8033100              0.07021793
 4         1.4593300              0.23201981
 P   1
 1         0.4834560              1.00000000
 P   1
 1         0.1455850              1.00000000
 P   1
 1         0.0438000              1.00000000
 D   1
 1         0.6260000              1.00000000

O    8.0    -1.0167374914 1.8830563809 -1.1991999015
 S   7
 1  31660948.4326500              0.00000005
 2   1341747.4801660              0.00000251
 3     86856.41933057             0.00006440
 4      8588.5000000              0.00098884
 5      1297.2300000              0.00798975
 6       299.2960000              0.03894177
 7         3.7400400              0.43596773
 S   1
 1        87.3771000              1.00000000
 S   1
 1        42.1175000              1.00000000
 S   1
 1        25.6789000              1.00000000
 S   1
 1         9.6283700              1.00000000
 S   1
 1         2.8533200              1.00000000
 S   1
 1         0.9056610              1.00000000
 S   1
 1         0.2556110              1.00000000
 S   1
 1         0.0845000              1.00000000
 P   4
 1       238.82507403             0.00071107
 2        42.1175000              0.01088929
 3         9.6283700              0.07471358
 4         2.8533200              0.25205556
 P   1
 1         0.9056610              1.00000000
 P   1
 1         0.2556110              1.00000000
 P   1
 1         0.0845000              1.00000000
 D   1
 1         1.2920000              1.00000000

H    1.0    -0.2960738827 1.5115073050 -1.6798048020
 S 3
 1    118753.0892189              0.00000034
 2      5170.23631942             0.00001503
 3       340.31345127             0.00037853
 S   1
 1        33.8650000              1.00000000
 S   1
 1         5.0947900              1.00000000
 S   1
 1         1.1587900              1.00000000
 S   1
 1         0.3258400              1.00000000
 S   1
 1         0.1027410              1.00000000
 S   1
 1         0.0360000              1.00000000
 P   1
 1         0.7500000              1.00000000

C    6.0    -1.2542620887 -0.3627929343 -0.3984706665
 S   7
 1  16876193.1394200              0.00000006
 2    717812.0184378              0.00000265
 3     46416.99275025             0.00006807
 4      4563.2400000              0.00105552
 5       682.0240000              0.00866603
 6       154.9730000              0.04301032
 7         1.8277300              0.43340136
 S   1
 1        44.4553000              1.00000000
 S   1
 1        20.9642000              1.00000000
 S   1
 1        13.0290000              1.00000000
 S   1
 1         4.8033100              1.00000000
 S   1
 1         1.4593300              1.00000000
 S   1
 1         0.4834560              1.00000000
 S   1
 1         0.1455850              1.00000000
 S   1
 1         0.0438000              1.00000000
 P   4
 1       121.32953805             0.00075096
 2        20.9642000              0.01110197
 3         4.8033100              0.07021793
 4         1.4593300              0.23201981
 P   1
 1         0.4834560              1.00000000
 P   1
 1         0.1455850              1.00000000
 P   1
 1         0.0438000              1.00000000
 D   1
 1         0.6260000              1.00000000

C    6.0    -1.9906045453 -1.2727505682 0.3361468773
 S   7
 1  16876193.1394200              0.00000006
 2    717812.0184378              0.00000265
 3     46416.99275025             0.00006807
 4      4563.2400000              0.00105552
 5       682.0240000              0.00866603
 6       154.9730000              0.04301032
 7         1.8277300              0.43340136
 S   1
 1        44.4553000              1.00000000
 S   1
 1        20.9642000              1.00000000
 S   1
 1        13.0290000              1.00000000
 S   1
 1         4.8033100              1.00000000
 S   1
 1         1.4593300              1.00000000
 S   1
 1         0.4834560              1.00000000
 S   1
 1         0.1455850              1.00000000
 S   1
 1         0.0438000              1.00000000
 P   4
 1       121.32953805             0.00075096
 2        20.9642000              0.01110197
 3         4.8033100              0.07021793
 4         1.4593300              0.23201981
 P   1
 1         0.4834560              1.00000000
 P   1
 1         0.1455850              1.00000000
 P   1
 1         0.0438000              1.00000000
 D   1
 1         0.6260000              1.00000000

C    6.0    -3.1588821172 -0.8919167613 0.9667906128
 S   7
 1  16876193.1394200              0.00000006
 2    717812.0184378              0.00000265
 3     46416.99275025             0.00006807
 4      4563.2400000              0.00105552
 5       682.0240000              0.00866603
 6       154.9730000              0.04301032
 7         1.8277300              0.43340136
 S   1
 1        44.4553000              1.00000000
 S   1
 1        20.9642000              1.00000000
 S   1
 1        13.0290000              1.00000000
 S   1
 1         4.8033100              1.00000000
 S   1
 1         1.4593300              1.00000000
 S   1
 1         0.4834560              1.00000000
 S   1
 1         0.1455850              1.00000000
 S   1
 1         0.0438000              1.00000000
 P   4
 1       121.32953805             0.00075096
 2        20.9642000              0.01110197
 3         4.8033100              0.07021793
 4         1.4593300              0.23201981
 P   1
 1         0.4834560              1.00000000
 P   1
 1         0.1455850              1.00000000
 P   1
 1         0.0438000              1.00000000
 D   1
 1         0.6260000              1.00000000

C    6.0    -3.5896893625 0.4182342250 0.8575415485
 S   7
 1  16876193.1394200              0.00000006
 2    717812.0184378              0.00000265
 3     46416.99275025             0.00006807
 4      4563.2400000              0.00105552
 5       682.0240000              0.00866603
 6       154.9730000              0.04301032
 7         1.8277300              0.43340136
 S   1
 1        44.4553000              1.00000000
 S   1
 1        20.9642000              1.00000000
 S   1
 1        13.0290000              1.00000000
 S   1
 1         4.8033100              1.00000000
 S   1
 1         1.4593300              1.00000000
 S   1
 1         0.4834560              1.00000000
 S   1
 1         0.1455850              1.00000000
 S   1
 1         0.0438000              1.00000000
 P   4
 1       121.32953805             0.00075096
 2        20.9642000              0.01110197
 3         4.8033100              0.07021793
 4         1.4593300              0.23201981
 P   1
 1         0.4834560              1.00000000
 P   1
 1         0.1455850              1.00000000
 P   1
 1         0.0438000              1.00000000
 D   1
 1         0.6260000              1.00000000

C    6.0    -2.8664639020 1.3369848181 0.1245258839
 S   7
 1  16876193.1394200              0.00000006
 2    717812.0184378              0.00000265
 3     46416.99275025             0.00006807
 4      4563.2400000              0.00105552
 5       682.0240000              0.00866603
 6       154.9730000              0.04301032
 7         1.8277300              0.43340136
 S   1
 1        44.4553000              1.00000000
 S   1
 1        20.9642000              1.00000000
 S   1
 1        13.0290000              1.00000000
 S   1
 1         4.8033100              1.00000000
 S   1
 1         1.4593300              1.00000000
 S   1
 1         0.4834560              1.00000000
 S   1
 1         0.1455850              1.00000000
 S   1
 1         0.0438000              1.00000000
 P   4
 1       121.32953805             0.00075096
 2        20.9642000              0.01110197
 3         4.8033100              0.07021793
 4         1.4593300              0.23201981
 P   1
 1         0.4834560              1.00000000
 P   1
 1         0.1455850              1.00000000
 P   1
 1         0.0438000              1.00000000
 D   1
 1         0.6260000              1.00000000

H    1.0    -0.3351212275 -0.6576336124 -0.8660274634
 S 3
 1    118753.0892189              0.00000034
 2      5170.23631942             0.00001503
 3       340.31345127             0.00037853
 S   1
 1        33.8650000              1.00000000
 S   1
 1         5.0947900              1.00000000
 S   1
 1         1.1587900              1.00000000
 S   1
 1         0.3258400              1.00000000
 S   1
 1         0.1027410              1.00000000
 S   1
 1         0.0360000              1.00000000
 P   1
 1         0.7500000              1.00000000

H    1.0    -1.6391252369 -2.2832889270 0.4181658553
 S 3
 1    118753.0892189              0.00000034
 2      5170.23631942             0.00001503
 3       340.31345127             0.00037853
 S   1
 1        33.8650000              1.00000000
 S   1
 1         5.0947900              1.00000000
 S   1
 1         1.1587900              1.00000000
 S   1
 1         0.3258400              1.00000000
 S   1
 1         0.1027410              1.00000000
 S   1
 1         0.0360000              1.00000000
 P   1
 1         0.7500000              1.00000000

H    1.0    -3.7244856540 -1.6028326494 1.5364741882
 S 3
 1    118753.0892189              0.00000034
 2      5170.23631942             0.00001503
 3       340.31345127             0.00037853
 S   1
 1        33.8650000              1.00000000
 S   1
 1         5.0947900              1.00000000
 S   1
 1         1.1587900              1.00000000
 S   1
 1         0.3258400              1.00000000
 S   1
 1         0.1027410              1.00000000
 S   1
 1         0.0360000              1.00000000
 P   1
 1         0.7500000              1.00000000

H    1.0    -4.4950157345 0.7280066749 1.3432113760
 S 3
 1    118753.0892189              0.00000034
 2      5170.23631942             0.00001503
 3       340.31345127             0.00037853
 S   1
 1        33.8650000              1.00000000
 S   1
 1         5.0947900              1.00000000
 S   1
 1         1.1587900              1.00000000
 S   1
 1         0.3258400              1.00000000
 S   1
 1         0.1027410              1.00000000
 S   1
 1         0.0360000              1.00000000
 P   1
 1         0.7500000              1.00000000

H    1.0    -3.1935147889 2.3540974747 0.0303560211
 S 3
 1    118753.0892189              0.00000034
 2      5170.23631942             0.00001503
 3       340.31345127             0.00037853
 S   1
 1        33.8650000              1.00000000
 S   1
 1         5.0947900              1.00000000
 S   1
 1         1.1587900              1.00000000
 S   1
 1         0.3258400              1.00000000
 S   1
 1         0.1027410              1.00000000
 S   1
 1         0.0360000              1.00000000
 P   1
 1         0.7500000              1.00000000

O    8.0    2.0954938370 2.1393144471 -1.6296486753
 S   7
 1  31660948.4326500              0.00000005
 2   1341747.4801660              0.00000251
 3     86856.41933057             0.00006440
 4      8588.5000000              0.00098884
 5      1297.2300000              0.00798975
 6       299.2960000              0.03894177
 7         3.7400400              0.43596773
 S   1
 1        87.3771000              1.00000000
 S   1
 1        42.1175000              1.00000000
 S   1
 1        25.6789000              1.00000000
 S   1
 1         9.6283700              1.00000000
 S   1
 1         2.8533200              1.00000000
 S   1
 1         0.9056610              1.00000000
 S   1
 1         0.2556110              1.00000000
 S   1
 1         0.0845000              1.00000000
 P   4
 1       238.82507403             0.00071107
 2        42.1175000              0.01088929
 3         9.6283700              0.07471358
 4         2.8533200              0.25205556
 P   1
 1         0.9056610              1.00000000
 P   1
 1         0.2556110              1.00000000
 P   1
 1         0.0845000              1.00000000
 D   1
 1         1.2920000              1.00000000

C    6.0    2.2196062243 0.9941182443 -0.9306542953
 S   7
 1  16876193.1394200              0.00000006
 2    717812.0184378              0.00000265
 3     46416.99275025             0.00006807
 4      4563.2400000              0.00105552
 5       682.0240000              0.00866603
 6       154.9730000              0.04301032
 7         1.8277300              0.43340136
 S   1
 1        44.4553000              1.00000000
 S   1
 1        20.9642000              1.00000000
 S   1
 1        13.0290000              1.00000000
 S   1
 1         4.8033100              1.00000000
 S   1
 1         1.4593300              1.00000000
 S   1
 1         0.4834560              1.00000000
 S   1
 1         0.1455850              1.00000000
 S   1
 1         0.0438000              1.00000000
 P   4
 1       121.32953805             0.00075096
 2        20.9642000              0.01110197
 3         4.8033100              0.07021793
 4         1.4593300              0.23201981
 P   1
 1         0.4834560              1.00000000
 P   1
 1         0.1455850              1.00000000
 P   1
 1         0.0438000              1.00000000
 D   1
 1         0.6260000              1.00000000

H    1.0    1.8879776735 2.8692916108 -1.0667350685
 S 3
 1    118753.0892189              0.00000034
 2      5170.23631942             0.00001503
 3       340.31345127             0.00037853
 S   1
 1        33.8650000              1.00000000
 S   1
 1         5.0947900              1.00000000
 S   1
 1         1.1587900              1.00000000
 S   1
 1         0.3258400              1.00000000
 S   1
 1         0.1027410              1.00000000
 S   1
 1         0.0360000              1.00000000
 P   1
 1         0.7500000              1.00000000

C    6.0    2.4767352885 -0.1639468973 -1.6453620099
 S   7
 1  16876193.1394200              0.00000006
 2    717812.0184378              0.00000265
 3     46416.99275025             0.00006807
 4      4563.2400000              0.00105552
 5       682.0240000              0.00866603
 6       154.9730000              0.04301032
 7         1.8277300              0.43340136
 S   1
 1        44.4553000              1.00000000
 S   1
 1        20.9642000              1.00000000
 S   1
 1        13.0290000              1.00000000
 S   1
 1         4.8033100              1.00000000
 S   1
 1         1.4593300              1.00000000
 S   1
 1         0.4834560              1.00000000
 S   1
 1         0.1455850              1.00000000
 S   1
 1         0.0438000              1.00000000
 P   4
 1       121.32953805             0.00075096
 2        20.9642000              0.01110197
 3         4.8033100              0.07021793
 4         1.4593300              0.23201981
 P   1
 1         0.4834560              1.00000000
 P   1
 1         0.1455850              1.00000000
 P   1
 1         0.0438000              1.00000000
 D   1
 1         0.6260000              1.00000000

C    6.0    2.5772344474 -1.3688466331 -0.9800482059
 S   7
 1  16876193.1394200              0.00000006
 2    717812.0184378              0.00000265
 3     46416.99275025             0.00006807
 4      4563.2400000              0.00105552
 5       682.0240000              0.00866603
 6       154.9730000              0.04301032
 7         1.8277300              0.43340136
 S   1
 1        44.4553000              1.00000000
 S   1
 1        20.9642000              1.00000000
 S   1
 1        13.0290000              1.00000000
 S   1
 1         4.8033100              1.00000000
 S   1
 1         1.4593300              1.00000000
 S   1
 1         0.4834560              1.00000000
 S   1
 1         0.1455850              1.00000000
 S   1
 1         0.0438000              1.00000000
 P   4
 1       121.32953805             0.00075096
 2        20.9642000              0.01110197
 3         4.8033100              0.07021793
 4         1.4593300              0.23201981
 P   1
 1         0.4834560              1.00000000
 P   1
 1         0.1455850              1.00000000
 P   1
 1         0.0438000              1.00000000
 D   1
 1         0.6260000              1.00000000

C    6.0    2.4209072259 -1.4331480048 0.3933556295
 S   7
 1  16876193.1394200              0.00000006
 2    717812.0184378              0.00000265
 3     46416.99275025             0.00006807
 4      4563.2400000              0.00105552
 5       682.0240000              0.00866603
 6       154.9730000              0.04301032
 7         1.8277300              0.43340136
 S   1
 1        44.4553000              1.00000000
 S   1
 1        20.9642000              1.00000000
 S   1
 1        13.0290000              1.00000000
 S   1
 1         4.8033100              1.00000000
 S   1
 1         1.4593300              1.00000000
 S   1
 1         0.4834560              1.00000000
 S   1
 1         0.1455850              1.00000000
 S   1
 1         0.0438000              1.00000000
 P   4
 1       121.32953805             0.00075096
 2        20.9642000              0.01110197
 3         4.8033100              0.07021793
 4         1.4593300              0.23201981
 P   1
 1         0.4834560              1.00000000
 P   1
 1         0.1455850              1.00000000
 P   1
 1         0.0438000              1.00000000
 D   1
 1         0.6260000              1.00000000

C    6.0    2.1657562692 -0.2714891973 1.0953800658
 S   7
 1  16876193.1394200              0.00000006
 2    717812.0184378              0.00000265
 3     46416.99275025             0.00006807
 4      4563.2400000              0.00105552
 5       682.0240000              0.00866603
 6       154.9730000              0.04301032
 7         1.8277300              0.43340136
 S   1
 1        44.4553000              1.00000000
 S   1
 1        20.9642000              1.00000000
 S   1
 1        13.0290000              1.00000000
 S   1
 1         4.8033100              1.00000000
 S   1
 1         1.4593300              1.00000000
 S   1
 1         0.4834560              1.00000000
 S   1
 1         0.1455850              1.00000000
 S   1
 1         0.0438000              1.00000000
 P   4
 1       121.32953805             0.00075096
 2        20.9642000              0.01110197
 3         4.8033100              0.07021793
 4         1.4593300              0.23201981
 P   1
 1         0.4834560              1.00000000
 P   1
 1         0.1455850              1.00000000
 P   1
 1         0.0438000              1.00000000
 D   1
 1         0.6260000              1.00000000

C    6.0    2.0639900691 0.9427954950 0.4436669084
 S   7
 1  16876193.1394200              0.00000006
 2    717812.0184378              0.00000265
 3     46416.99275025             0.00006807
 4      4563.2400000              0.00105552
 5       682.0240000              0.00866603
 6       154.9730000              0.04301032
 7         1.8277300              0.43340136
 S   1
 1        44.4553000              1.00000000
 S   1
 1        20.9642000              1.00000000
 S   1
 1        13.0290000              1.00000000
 S   1
 1         4.8033100              1.00000000
 S   1
 1         1.4593300              1.00000000
 S   1
 1         0.4834560              1.00000000
 S   1
 1         0.1455850              1.00000000
 S   1
 1         0.0438000              1.00000000
 P   4
 1       121.32953805             0.00075096
 2        20.9642000              0.01110197
 3         4.8033100              0.07021793
 4         1.4593300              0.23201981
 P   1
 1         0.4834560              1.00000000
 P   1
 1         0.1455850              1.00000000
 P   1
 1         0.0438000              1.00000000
 D   1
 1         0.6260000              1.00000000

H    1.0    2.5974342491 -0.1028401206 -2.7091749753
 S 3
 1    118753.0892189              0.00000034
 2      5170.23631942             0.00001503
 3       340.31345127             0.00037853
 S   1
 1        33.8650000              1.00000000
 S   1
 1         5.0947900              1.00000000
 S   1
 1         1.1587900              1.00000000
 S   1
 1         0.3258400              1.00000000
 S   1
 1         0.1027410              1.00000000
 S   1
 1         0.0360000              1.00000000
 P   1
 1         0.7500000              1.00000000

H    1.0    2.7781988705 -2.2625927329 -1.5393508194
 S 3
 1    118753.0892189              0.00000034
 2      5170.23631942             0.00001503
 3       340.31345127             0.00037853
 S   1
 1        33.8650000              1.00000000
 S   1
 1         5.0947900              1.00000000
 S   1
 1         1.1587900              1.00000000
 S   1
 1         0.3258400              1.00000000
 S   1
 1         0.1027410              1.00000000
 S   1
 1         0.0360000              1.00000000
 P   1
 1         0.7500000              1.00000000

H    1.0    2.4975014706 -2.3720171632 0.9056559817
 S 3
 1    118753.0892189              0.00000034
 2      5170.23631942             0.00001503
 3       340.31345127             0.00037853
 S   1
 1        33.8650000              1.00000000
 S   1
 1         5.0947900              1.00000000
 S   1
 1         1.1587900              1.00000000
 S   1
 1         0.3258400              1.00000000
 S   1
 1         0.1027410              1.00000000
 S   1
 1         0.0360000              1.00000000
 P   1
 1         0.7500000              1.00000000

H    1.0    2.0363925195 -0.3055061339 2.1601245416
 S 3
 1    118753.0892189              0.00000034
 2      5170.23631942             0.00001503
 3       340.31345127             0.00037853
 S   1
 1        33.8650000              1.00000000
 S   1
 1         5.0947900              1.00000000
 S   1
 1         1.1587900              1.00000000
 S   1
 1         0.3258400              1.00000000
 S   1
 1         0.1027410              1.00000000
 S   1
 1         0.0360000              1.00000000
 P   1
 1         0.7500000              1.00000000

H    1.0    1.8525893416 1.8410058912 0.9908737922
 S 3
 1    118753.0892189              0.00000034
 2      5170.23631942             0.00001503
 3       340.31345127             0.00037853
 S   1
 1        33.8650000              1.00000000
 S   1
 1         5.0947900              1.00000000
 S   1
 1         1.1587900              1.00000000
 S   1
 1         0.3258400              1.00000000
 S   1
 1         0.1027410              1.00000000
 S   1
 1         0.0360000              1.00000000
 P   1
 1         0.7500000              1.00000000

O    8.0    0.5045234401 3.9728976293 0.0282792985
 S   7
 1  31660948.4326500              0.00000005
 2   1341747.4801660              0.00000251
 3     86856.41933057             0.00006440
 4      8588.5000000              0.00098884
 5      1297.2300000              0.00798975
 6       299.2960000              0.03894177
 7         3.7400400              0.43596773
 S   1
 1        87.3771000              1.00000000
 S   1
 1        42.1175000              1.00000000
 S   1
 1        25.6789000              1.00000000
 S   1
 1         9.6283700              1.00000000
 S   1
 1         2.8533200              1.00000000
 S   1
 1         0.9056610              1.00000000
 S   1
 1         0.2556110              1.00000000
 S   1
 1         0.0845000              1.00000000
 P   4
 1       238.82507403             0.00071107
 2        42.1175000              0.01088929
 3         9.6283700              0.07471358
 4         2.8533200              0.25205556
 P   1
 1         0.9056610              1.00000000
 P   1
 1         0.2556110              1.00000000
 P   1
 1         0.0845000              1.00000000
 D   1
 1         1.2920000              1.00000000

H    1.0    -0.1650938254 3.3583156785 -0.2372997444
 S 3
 1    118753.0892189              0.00000034
 2      5170.23631942             0.00001503
 3       340.31345127             0.00037853
 S   1
 1        33.8650000              1.00000000
 S   1
 1         5.0947900              1.00000000
 S   1
 1         1.1587900              1.00000000
 S   1
 1         0.3258400              1.00000000
 S   1
 1         0.1027410              1.00000000
 S   1
 1         0.0360000              1.00000000
 P   1
 1         0.7500000              1.00000000

C    6.0    0.2050513503 5.2264049285 -0.3796124590
 S   7
 1  16876193.1394200              0.00000006
 2    717812.0184378              0.00000265
 3     46416.99275025             0.00006807
 4      4563.2400000              0.00105552
 5       682.0240000              0.00866603
 6       154.9730000              0.04301032
 7         1.8277300              0.43340136
 S   1
 1        44.4553000              1.00000000
 S   1
 1        20.9642000              1.00000000
 S   1
 1        13.0290000              1.00000000
 S   1
 1         4.8033100              1.00000000
 S   1
 1         1.4593300              1.00000000
 S   1
 1         0.4834560              1.00000000
 S   1
 1         0.1455850              1.00000000
 S   1
 1         0.0438000              1.00000000
 P   4
 1       121.32953805             0.00075096
 2        20.9642000              0.01110197
 3         4.8033100              0.07021793
 4         1.4593300              0.23201981
 P   1
 1         0.4834560              1.00000000
 P   1
 1         0.1455850              1.00000000
 P   1
 1         0.0438000              1.00000000
 D   1
 1         0.6260000              1.00000000

H    1.0    1.9229687199 6.0168155913 0.5865098647
 S 3
 1    118753.0892189              0.00000034
 2      5170.23631942             0.00001503
 3       340.31345127             0.00037853
 S   1
 1        33.8650000              1.00000000
 S   1
 1         5.0947900              1.00000000
 S   1
 1         1.1587900              1.00000000
 S   1
 1         0.3258400              1.00000000
 S   1
 1         0.1027410              1.00000000
 S   1
 1         0.0360000              1.00000000
 P   1
 1         0.7500000              1.00000000

C    6.0    1.0629846204 6.2467247441 -0.0115072287
 S   7
 1  16876193.1394200              0.00000006
 2    717812.0184378              0.00000265
 3     46416.99275025             0.00006807
 4      4563.2400000              0.00105552
 5       682.0240000              0.00866603
 6       154.9730000              0.04301032
 7         1.8277300              0.43340136
 S   1
 1        44.4553000              1.00000000
 S   1
 1        20.9642000              1.00000000
 S   1
 1        13.0290000              1.00000000
 S   1
 1         4.8033100              1.00000000
 S   1
 1         1.4593300              1.00000000
 S   1
 1         0.4834560              1.00000000
 S   1
 1         0.1455850              1.00000000
 S   1
 1         0.0438000              1.00000000
 P   4
 1       121.32953805             0.00075096
 2        20.9642000              0.01110197
 3         4.8033100              0.07021793
 4         1.4593300              0.23201981
 P   1
 1         0.4834560              1.00000000
 P   1
 1         0.1455850              1.00000000
 P   1
 1         0.0438000              1.00000000
 D   1
 1         0.6260000              1.00000000

C    6.0    -0.9121212335 5.4960649534 -1.1489350648
 S   7
 1  16876193.1394200              0.00000006
 2    717812.0184378              0.00000265
 3     46416.99275025             0.00006807
 4      4563.2400000              0.00105552
 5       682.0240000              0.00866603
 6       154.9730000              0.04301032
 7         1.8277300              0.43340136
 S   1
 1        44.4553000              1.00000000
 S   1
 1        20.9642000              1.00000000
 S   1
 1        13.0290000              1.00000000
 S   1
 1         4.8033100              1.00000000
 S   1
 1         1.4593300              1.00000000
 S   1
 1         0.4834560              1.00000000
 S   1
 1         0.1455850              1.00000000
 S   1
 1         0.0438000              1.00000000
 P   4
 1       121.32953805             0.00075096
 2        20.9642000              0.01110197
 3         4.8033100              0.07021793
 4         1.4593300              0.23201981
 P   1
 1         0.4834560              1.00000000
 P   1
 1         0.1455850              1.00000000
 P   1
 1         0.0438000              1.00000000
 D   1
 1         0.6260000              1.00000000

H    1.0    -1.5663930500 4.6958797206 -1.4384721031
 S 3
 1    118753.0892189              0.00000034
 2      5170.23631942             0.00001503
 3       340.31345127             0.00037853
 S   1
 1        33.8650000              1.00000000
 S   1
 1         5.0947900              1.00000000
 S   1
 1         1.1587900              1.00000000
 S   1
 1         0.3258400              1.00000000
 S   1
 1         0.1027410              1.00000000
 S   1
 1         0.0360000              1.00000000
 P   1