 $scf dirscf=.t. damp=.t. shift=.f.
   soscf=.f. diis=.t. fdiff=.f. extrap=.f. $end
 $system mwords=500 memddi=500 $end
 $intgrl schwrz=.t. intomp=1 shfock=.f. $end
 $guess guess=hcore $end
 $contrl scftyp=rhf runtyp=energy nprint=-5
     icharg=0 ispher=0 inttyp=eric 
     maxit=100 $end
 $end
 $data
adenine_thymine_2 
C1
N    7.0    -0.5351467566 1.6892532121 1.1619896961
 S   7
 1  23421322.3838400              0.00000006
 2    988674.6264273              0.00000262
 3     63798.90182836             0.00006752
 4      6293.4800000              0.00103995
 5       949.0440000              0.00840880
 6       218.7760000              0.04094490
 7         2.7202300              0.43311373
 S   1
 1        63.6916000              1.00000000
 S   1
 1        30.6331000              1.00000000
 S   1
 1        18.8282000              1.00000000
 S   1
 1         7.0261400              1.00000000
 S   1
 1         2.1120500              1.00000000
 S   1
 1         0.6840090              1.00000000
 S   1
 1         0.2008780              1.00000000
 S   1
 1         0.0639000              1.00000000
 P   4
 1       175.03570330             0.00074214
 2        30.6331000              0.01117529
 3         7.0261400              0.07350563
 4         2.1120500              0.24667585
 P   1
 1         0.6840090              1.00000000
 P   1
 1         0.2008780              1.00000000
 P   1
 1         0.0639000              1.00000000
 D   1
 1         0.9130000              1.00000000

C    6.0    -0.8216207750 0.7701095970 0.2045668840
 S   7
 1  16876193.1394200              0.00000006
 2    717812.0184378              0.00000265
 3     46416.99275025             0.00006807
 4      4563.2400000              0.00105552
 5       682.0240000              0.00866603
 6       154.9730000              0.04301032
 7         1.8277300              0.43340136
 S   1
 1        44.4553000              1.00000000
 S   1
 1        20.9642000              1.00000000
 S   1
 1        13.0290000              1.00000000
 S   1
 1         4.8033100              1.00000000
 S   1
 1         1.4593300              1.00000000
 S   1
 1         0.4834560              1.00000000
 S   1
 1         0.1455850              1.00000000
 S   1
 1         0.0438000              1.00000000
 P   4
 1       121.32953805             0.00075096
 2        20.9642000              0.01110197
 3         4.8033100              0.07021793
 4         1.4593300              0.23201981
 P   1
 1         0.4834560              1.00000000
 P   1
 1         0.1455850              1.00000000
 P   1
 1         0.0438000              1.00000000
 D   1
 1         0.6260000              1.00000000

H    1.0    -1.0918843459 1.0473442403 -0.7924292933
 S 3
 1    118753.0892189              0.00000034
 2      5170.23631942             0.00001503
 3       340.31345127             0.00037853
 S   1
 1        33.8650000              1.00000000
 S   1
 1         5.0947900              1.00000000
 S   1
 1         1.1587900              1.00000000
 S   1
 1         0.3258400              1.00000000
 S   1
 1         0.1027410              1.00000000
 S   1
 1         0.0360000              1.00000000
 P   1
 1         0.7500000              1.00000000

N    7.0    -0.7265455354 -0.4447905548 0.6167768061
 S   7
 1  23421322.3838400              0.00000006
 2    988674.6264273              0.00000262
 3     63798.90182836             0.00006752
 4      6293.4800000              0.00103995
 5       949.0440000              0.00840880
 6       218.7760000              0.04094490
 7         2.7202300              0.43311373
 S   1
 1        63.6916000              1.00000000
 S   1
 1        30.6331000              1.00000000
 S   1
 1        18.8282000              1.00000000
 S   1
 1         7.0261400              1.00000000
 S   1
 1         2.1120500              1.00000000
 S   1
 1         0.6840090              1.00000000
 S   1
 1         0.2008780              1.00000000
 S   1
 1         0.0639000              1.00000000
 P   4
 1       175.03570330             0.00074214
 2        30.6331000              0.01117529
 3         7.0261400              0.07350563
 4         2.1120500              0.24667585
 P   1
 1         0.6840090              1.00000000
 P   1
 1         0.2008780              1.00000000
 P   1
 1         0.0639000              1.00000000
 D   1
 1         0.9130000              1.00000000

C    6.0    -0.3535948828 -0.3301188535 1.9418560804
 S   7
 1  16876193.1394200              0.00000006
 2    717812.0184378              0.00000265
 3     46416.99275025             0.00006807
 4      4563.2400000              0.00105552
 5       682.0240000              0.00866603
 6       154.9730000              0.04301032
 7         1.8277300              0.43340136
 S   1
 1        44.4553000              1.00000000
 S   1
 1        20.9642000              1.00000000
 S   1
 1        13.0290000              1.00000000
 S   1
 1         4.8033100              1.00000000
 S   1
 1         1.4593300              1.00000000
 S   1
 1         0.4834560              1.00000000
 S   1
 1         0.1455850              1.00000000
 S   1
 1         0.0438000              1.00000000
 P   4
 1       121.32953805             0.00075096
 2        20.9642000              0.01110197
 3         4.8033100              0.07021793
 4         1.4593300              0.23201981
 P   1
 1         0.4834560              1.00000000
 P   1
 1         0.1455850              1.00000000
 P   1
 1         0.0438000              1.00000000
 D   1
 1         0.6260000              1.00000000

C    6.0    -0.1031775154 -1.2577002456 2.9506256526
 S   7
 1  16876193.1394200              0.00000006
 2    717812.0184378              0.00000265
 3     46416.99275025             0.00006807
 4      4563.2400000              0.00105552
 5       682.0240000              0.00866603
 6       154.9730000              0.04301032
 7         1.8277300              0.43340136
 S   1
 1        44.4553000              1.00000000
 S   1
 1        20.9642000              1.00000000
 S   1
 1        13.0290000              1.00000000
 S   1
 1         4.8033100              1.00000000
 S   1
 1         1.4593300              1.00000000
 S   1
 1         0.4834560              1.00000000
 S   1
 1         0.1455850              1.00000000
 S   1
 1         0.0438000              1.00000000
 P   4
 1       121.32953805             0.00075096
 2        20.9642000              0.01110197
 3         4.8033100              0.07021793
 4         1.4593300              0.23201981
 P   1
 1         0.4834560              1.00000000
 P   1
 1         0.1455850              1.00000000
 P   1
 1         0.0438000              1.00000000
 D   1
 1         0.6260000              1.00000000

N    7.0    -0.1821157828 -2.5869737026 2.7512134206
 S   7
 1  23421322.3838400              0.00000006
 2    988674.6264273              0.00000262
 3     63798.90182836             0.00006752
 4      6293.4800000              0.00103995
 5       949.0440000              0.00840880
 6       218.7760000              0.04094490
 7         2.7202300              0.43311373
 S   1
 1        63.6916000              1.00000000
 S   1
 1        30.6331000              1.00000000
 S   1
 1        18.8282000              1.00000000
 S   1
 1         7.0261400              1.00000000
 S   1
 1         2.1120500              1.00000000
 S   1
 1         0.6840090              1.00000000
 S   1
 1         0.2008780              1.00000000
 S   1
 1         0.0639000              1.00000000
 P   4
 1       175.03570330             0.00074214
 2        30.6331000              0.01117529
 3         7.0261400              0.07350563
 4         2.1120500              0.24667585
 P   1
 1         0.6840090              1.00000000
 P   1
 1         0.2008780              1.00000000
 P   1
 1         0.0639000              1.00000000
 D   1
 1         0.9130000              1.00000000

H    1.0    -0.1602656462 -3.1696866719 3.5527346402
 S 3
 1    118753.0892189              0.00000034
 2      5170.23631942             0.00001503
 3       340.31345127             0.00037853
 S   1
 1        33.8650000              1.00000000
 S   1
 1         5.0947900              1.00000000
 S   1
 1         1.1587900              1.00000000
 S   1
 1         0.3258400              1.00000000
 S   1
 1         0.1027410              1.00000000
 S   1
 1         0.0360000              1.00000000
 P   1
 1         0.7500000              1.00000000

H    1.0    -0.6676857413 -2.9163416337 1.9535880904
 S 3
 1    118753.0892189              0.00000034
 2      5170.23631942             0.00001503
 3       340.31345127             0.00037853
 S   1
 1        33.8650000              1.00000000
 S   1
 1         5.0947900              1.00000000
 S   1
 1         1.1587900              1.00000000
 S   1
 1         0.3258400              1.00000000
 S   1
 1         0.1027410              1.00000000
 S   1
 1         0.0360000              1.00000000
 P   1
 1         0.7500000              1.00000000

N    7.0    0.2484063743 -0.8133852826 4.1484123138
 S   7
 1  23421322.3838400              0.00000006
 2    988674.6264273              0.00000262
 3     63798.90182836             0.00006752
 4      6293.4800000              0.00103995
 5       949.0440000              0.00840880
 6       218.7760000              0.04094490
 7         2.7202300              0.43311373
 S   1
 1        63.6916000              1.00000000
 S   1
 1        30.6331000              1.00000000
 S   1
 1        18.8282000              1.00000000
 S   1
 1         7.0261400              1.00000000
 S   1
 1         2.1120500              1.00000000
 S   1
 1         0.6840090              1.00000000
 S   1
 1         0.2008780              1.00000000
 S   1
 1         0.0639000              1.00000000
 P   4
 1       175.03570330             0.00074214
 2        30.6331000              0.01117529
 3         7.0261400              0.07350563
 4         2.1120500              0.24667585
 P   1
 1         0.6840090              1.00000000
 P   1
 1         0.2008780              1.00000000
 P   1
 1         0.0639000              1.00000000
 D   1
 1         0.9130000              1.00000000

C    6.0    0.3448551136 0.4892332017 4.3384625323
 S   7
 1  16876193.1394200              0.00000006
 2    717812.0184378              0.00000265
 3     46416.99275025             0.00006807
 4      4563.2400000              0.00105552
 5       682.0240000              0.00866603
 6       154.9730000              0.04301032
 7         1.8277300              0.43340136
 S   1
 1        44.4553000              1.00000000
 S   1
 1        20.9642000              1.00000000
 S   1
 1        13.0290000              1.00000000
 S   1
 1         4.8033100              1.00000000
 S   1
 1         1.4593300              1.00000000
 S   1
 1         0.4834560              1.00000000
 S   1
 1         0.1455850              1.00000000
 S   1
 1         0.0438000              1.00000000
 P   4
 1       121.32953805             0.00075096
 2        20.9642000              0.01110197
 3         4.8033100              0.07021793
 4         1.4593300              0.23201981
 P   1
 1         0.4834560              1.00000000
 P   1
 1         0.1455850              1.00000000
 P   1
 1         0.0438000              1.00000000
 D   1
 1         0.6260000              1.00000000

H    1.0    0.6365176330 0.7889022976 5.3274604306
 S 3
 1    118753.0892189              0.00000034
 2      5170.23631942             0.00001503
 3       340.31345127             0.00037853
 S   1
 1        33.8650000              1.00000000
 S   1
 1         5.0947900              1.00000000
 S   1
 1         1.1587900              1.00000000
 S   1
 1         0.3258400              1.00000000
 S   1
 1         0.1027410              1.00000000
 S   1
 1         0.0360000              1.00000000
 P   1
 1         0.7500000              1.00000000

N    7.0    0.1263751728 1.4563024337 3.4793030675
 S   7
 1  23421322.3838400              0.00000006
 2    988674.6264273              0.00000262
 3     63798.90182836             0.00006752
 4      6293.4800000              0.00103995
 5       949.0440000              0.00840880
 6       218.7760000              0.04094490
 7         2.7202300              0.43311373
 S   1
 1        63.6916000              1.00000000
 S   1
 1        30.6331000              1.00000000
 S   1
 1        18.8282000              1.00000000
 S   1
 1         7.0261400              1.00000000
 S   1
 1         2.1120500              1.00000000
 S   1
 1         0.6840090              1.00000000
 S   1
 1         0.2008780              1.00000000
 S   1
 1         0.0639000              1.00000000
 P   4
 1       175.03570330             0.00074214
 2        30.6331000              0.01117529
 3         7.0261400              0.07350563
 4         2.1120500              0.24667585
 P   1
 1         0.6840090              1.00000000
 P   1
 1         0.2008780              1.00000000
 P   1
 1         0.0639000              1.00000000
 D   1
 1         0.9130000              1.00000000

C    6.0    -0.2286165484 0.9942751077 2.2833558600
 S   7
 1  16876193.1394200              0.00000006
 2    717812.0184378              0.00000265
 3     46416.99275025             0.00006807
 4      4563.2400000              0.00105552
 5       682.0240000              0.00866603
 6       154.9730000              0.04301032
 7         1.8277300              0.43340136
 S   1
 1        44.4553000              1.00000000
 S   1
 1        20.9642000              1.00000000
 S   1
 1        13.0290000              1.00000000
 S   1
 1         4.8033100              1.00000000
 S   1
 1         1.4593300              1.00000000
 S   1
 1         0.4834560              1.00000000
 S   1
 1         0.1455850              1.00000000
 S   1
 1         0.0438000              1.00000000
 P   4
 1       121.32953805             0.00075096
 2        20.9642000              0.01110197
 3         4.8033100              0.07021793
 4         1.4593300              0.23201981
 P   1
 1         0.4834560              1.00000000
 P   1
 1         0.1455850              1.00000000
 P   1
 1         0.0438000              1.00000000
 D   1
 1         0.6260000              1.00000000

H    1.0    -0.5197540381 2.6863400449 1.0724100490
 S 3
 1    118753.0892189              0.00000034
 2      5170.23631942             0.00001503
 3       340.31345127             0.00037853
 S   1
 1        33.8650000              1.00000000
 S   1
 1         5.0947900              1.00000000
 S   1
 1         1.1587900              1.00000000
 S   1
 1         0.3258400              1.00000000
 S   1
 1         0.1027410              1.00000000
 S   1
 1         0.0360000              1.00000000
 P   1
 1         0.7500000              1.00000000

N    7.0    -0.4989638159 -1.9980431838 -1.9677308852
 S   7
 1  23421322.3838400              0.00000006
 2    988674.6264273              0.00000262
 3     63798.90182836             0.00006752
 4      6293.4800000              0.00103995
 5       949.0440000              0.00840880
 6       218.7760000              0.04094490
 7         2.7202300              0.43311373
 S   1
 1        63.6916000              1.00000000
 S   1
 1        30.6331000              1.00000000
 S   1
 1        18.8282000              1.00000000
 S   1
 1         7.0261400              1.00000000
 S   1
 1         2.1120500              1.00000000
 S   1
 1         0.6840090              1.00000000
 S   1
 1         0.2008780              1.00000000
 S   1
 1         0.0639000              1.00000000
 P   4
 1       175.03570330             0.00074214
 2        30.6331000              0.01117529
 3         7.0261400              0.07350563
 4         2.1120500              0.24667585
 P   1
 1         0.6840090              1.00000000
 P   1
 1         0.2008780              1.00000000
 P   1
 1         0.0639000              1.00000000
 D   1
 1         0.9130000              1.00000000

C    6.0    0.0656029561 -3.2341397863 -2.1420531963
 S   7
 1  16876193.1394200              0.00000006
 2    717812.0184378              0.00000265
 3     46416.99275025             0.00006807
 4      4563.2400000              0.00105552
 5       682.0240000              0.00866603
 6       154.9730000              0.04301032
 7         1.8277300              0.43340136
 S   1
 1        44.4553000              1.00000000
 S   1
 1        20.9642000              1.00000000
 S   1
 1        13.0290000              1.00000000
 S   1
 1         4.8033100              1.00000000
 S   1
 1         1.4593300              1.00000000
 S   1
 1         0.4834560              1.00000000
 S   1
 1         0.1455850              1.00000000
 S   1
 1         0.0438000              1.00000000
 P   4
 1       121.32953805             0.00075096
 2        20.9642000              0.01110197
 3         4.8033100              0.07021793
 4         1.4593300              0.23201981
 P   1
 1         0.4834560              1.00000000
 P   1
 1         0.1455850              1.00000000
 P   1
 1         0.0438000              1.00000000
 D   1
 1         0.6260000              1.00000000

H    1.0    0.3826218970 -3.7111776726 -1.2356692003
 S 3
 1    118753.0892189              0.00000034
 2      5170.23631942             0.00001503
 3       340.31345127             0.00037853
 S   1
 1        33.8650000              1.00000000
 S   1
 1         5.0947900              1.00000000
 S   1
 1         1.1587900              1.00000000
 S   1
 1         0.3258400              1.00000000
 S   1
 1         0.1027410              1.00000000
 S   1
 1         0.0360000              1.00000000
 P   1
 1         0.7500000              1.00000000

C    6.0    0.2206417097 -3.8104478658 -3.3275080193
 S   7
 1  16876193.1394200              0.00000006
 2    717812.0184378              0.00000265
 3     46416.99275025             0.00006807
 4      4563.2400000              0.00105552
 5       682.0240000              0.00866603
 6       154.9730000              0.04301032
 7         1.8277300              0.43340136
 S   1
 1        44.4553000              1.00000000
 S   1
 1        20.9642000              1.00000000
 S   1
 1        13.0290000              1.00000000
 S   1
 1         4.8033100              1.00000000
 S   1
 1         1.4593300              1.00000000
 S   1
 1         0.4834560              1.00000000
 S   1
 1         0.1455850              1.00000000
 S   1
 1         0.0438000              1.00000000
 P   4
 1       121.32953805             0.00075096
 2        20.9642000              0.01110197
 3         4.8033100              0.07021793
 4         1.4593300              0.23201981
 P   1
 1         0.4834560              1.00000000
 P   1
 1         0.1455850              1.00000000
 P   1
 1         0.0438000              1.00000000
 D   1
 1         0.6260000              1.00000000

C    6.0    0.8383239947 -5.1586363562 -3.5454938186
 S   7
 1  16876193.1394200              0.00000006
 2    717812.0184378              0.00000265
 3     46416.99275025             0.00006807
 4      4563.2400000              0.00105552
 5       682.0240000              0.00866603
 6       154.9730000              0.04301032
 7         1.8277300              0.43340136
 S   1
 1        44.4553000              1.00000000
 S   1
 1        20.9642000              1.00000000
 S   1
 1        13.0290000              1.00000000
 S   1
 1         4.8033100              1.00000000
 S   1
 1         1.4593300              1.00000000
 S   1
 1         0.4834560              1.00000000
 S   1
 1         0.1455850              1.00000000
 S   1
 1         0.0438000              1.00000000
 P   4
 1       121.32953805             0.00075096
 2        20.9642000              0.01110197
 3         4.8033100              0.07021793
 4         1.4593300              0.23201981
 P   1
 1         0.4834560              1.00000000
 P   1
 1         0.1455850              1.00000000
 P   1
 1         0.0438000              1.00000000
 D   1
 1         0.6260000              1.00000000

H    1.0    0.1424979182 -5.8226507505 -4.0420103575
 S 3
 1    118753.0892189              0.00000034
 2      5170.23631942             0.00001503
 3       340.31345127             0.00037853
 S   1
 1        33.8650000              1.00000000
 S   1
 1         5.0947900              1.00000000
 S   1
 1         1.1587900              1.00000000
 S   1
 1         0.3258400              1.00000000
 S   1
 1         0.1027410              1.00000000
 S   1
 1         0.0360000              1.00000000
 P   1
 1         0.7500000              1.00000000

H    1.0    1.7121189125 -5.0807516741 -4.1799308577
 S 3
 1    118753.0892189              0.00000034
 2      5170.23631942             0.00001503
 3       340.31345127             0.00037853
 S   1
 1        33.8650000              1.00000000
 S   1
 1         5.0947900              1.00000000
 S   1
 1         1.1587900              1.00000000
 S   1
 1         0.3258400              1.00000000
 S   1
 1         0.1027410              1.00000000
 S   1
 1         0.0360000              1.00000000
 P   1
 1         0.7500000              1.00000000

H    1.0    1.1326049602 -5.6041109768 -2.6039683401
 S 3
 1    118753.0892189              0.00000034
 2      5170.23631942             0.00001503
 3       340.31345127             0.00037853
 S   1
 1        33.8650000              1.00000000
 S   1
 1         5.0947900              1.00000000
 S   1
 1         1.1587900              1.00000000
 S   1
 1         0.3258400              1.00000000
 S   1
 1         0.1027410              1.00000000
 S   1
 1         0.0360000              1.00000000
 P   1
 1         0.7500000              1.00000000

C    6.0    -0.2437031935 -3.0657731399 -4.5024230732
 S   7
 1  16876193.1394200              0.00000006
 2    717812.0184378              0.00000265
 3     46416.99275025             0.00006807
 4      4563.2400000              0.00105552
 5       682.0240000              0.00866603
 6       154.9730000              0.04301032
 7         1.8277300              0.43340136
 S   1
 1        44.4553000              1.00000000
 S   1
 1        20.9642000              1.00000000
 S   1
 1        13.0290000              1.00000000
 S   1
 1         4.8033100              1.00000000
 S   1
 1         1.4593300              1.00000000
 S   1
 1         0.4834560              1.00000000
 S   1
 1         0.1455850              1.00000000
 S   1
 1         0.0438000              1.00000000
 P   4
 1       121.32953805             0.00075096
 2        20.9642000              0.01110197
 3         4.8033100              0.07021793
 4         1.4593300              0.23201981
 P   1
 1         0.4834560              1.00000000
 P   1
 1         0.1455850              1.00000000
 P   1
 1         0.0438000              1.00000000
 D   1
 1         0.6260000              1.00000000

O    8.0    -0.1749052055 -3.4590317417 -5.6250820025
 S   7
 1  31660948.4326500              0.00000005
 2   1341747.4801660              0.00000251
 3     86856.41933057             0.00006440
 4      8588.5000000              0.00098884
 5      1297.2300000              0.00798975
 6       299.2960000              0.03894177
 7         3.7400400              0.43596773
 S   1
 1        87.3771000              1.00000000
 S   1
 1        42.1175000              1.00000000
 S   1
 1        25.6789000              1.00000000
 S   1
 1         9.6283700              1.00000000
 S   1
 1         2.8533200              1.00000000
 S   1
 1         0.9056610              1.00000000
 S   1
 1         0.2556110              1.00000000
 S   1
 1         0.0845000              1.00000000
 P   4
 1       238.82507403             0.00071107
 2        42.1175000              0.01088929
 3         9.6283700              0.07471358
 4         2.8533200              0.25205556
 P   1
 1         0.9056610              1.00000000
 P   1
 1         0.2556110              1.00000000
 P   1
 1         0.0845000              1.00000000
 D   1
 1         1.2920000              1.00000000

N    7.0    -0.7880179112 -1.8237650768 -4.2289438607
 S   7
 1  23421322.3838400              0.00000006
 2    988674.6264273              0.00000262
 3     63798.90182836             0.00006752
 4      6293.4800000              0.00103995
 5       949.0440000              0.00840880
 6       218.7760000              0.04094490
 7         2.7202300              0.43311373
 S   1
 1        63.6916000              1.00000000
 S   1
 1        30.6331000              1.00000000
 S   1
 1        18.8282000              1.00000000
 S   1
 1         7.0261400              1.00000000
 S   1
 1         2.1120500              1.00000000
 S   1
 1         0.6840090              1.00000000
 S   1
 1         0.2008780              1.00000000
 S   1
 1         0.0639000              1.00000000
 P   4
 1       175.03570330             0.00074214
 2        30.6331000              0.01117529
 3         7.0261400              0.07350563
 4         2.1120500              0.24667585
 P   1
 1         0.6840090              1.00000000
 P   1
 1         0.2008780              1.00000000
 P   1
 1         0.0639000              1.00000000
 D   1
 1         0.9130000              1.00000000

H    1.0    -1.1009142977 -1.2911163137 -5.0080134656
 S 3
 1    118753.0892189              0.00000034
 2      5170.23631942             0.00001503
 3       340.31345127             0.00037853
 S   1
 1        33.8650000              1.00000000
 S   1
 1         5.0947900              1.00000000
 S   1
 1         1.1587900              1.00000000
 S   1
 1         0.3258400              1.00000000
 S   1
 1         0.1027410              1.00000000
 S   1
 1         0.0360000              1.00000000
 P   1
 1         0.7500000              1.00000000

C    6.0    -0.9305250938 -1.2357745203 -3.0041724281
 S   7
 1  16876193.1394200              0.00000006
 2    717812.0184378              0.00000265
 3     46416.99275025             0.00006807
 4      4563.2400000              0.00105552
 5       682.0240000              0.00866603
 6       154.9730000              0.04301032
 7         1.8277300              0.43340136
 S   1
 1        44.4553000              1.00000000
 S   1
 1        20.9642000              1.00000000
 S   1
 1        13.0290000              1.00000000
 S   1
 1         4.8033100              1.00000000
 S   1
 1         1.4593300              1.00000000
 S   1
 1         0.4834560              1.00000000
 S   1
 1         0.1455850              1.00000000
 S   1
 1         0.0438000              1.00000000
 P   4
 1       121.32953805             0.00075096
 2        20.9642000              0.01110197
 3         4.8033100              0.07021793
 4         1.4593300              0.23201981
 P   1
 1         0.4834560              1.00000000
 P   1
 1         0.1455850              1.00000000
 P   1
 1         0.0438000              1.00000000
 D   1
 1         0.6260000              1.00000000

O    8.0    -1.3957115396 -0.1419645872 -2.8672261733
 S   7
 1  31660948.4326500              0.00000005
 2   1341747.4801660              0.00000251
 3     86856.41933057             0.00006440
 4      8588.5000000              0.00098884
 5      1297.2300000              0.00798975
 6       299.2960000              0.03894177
 7         3.7400400              0.43596773
 S   1
 1        87.3771000              1.00000000
 S   1
 1        42.1175000              1.00000000
 S   1
 1        25.6789000              1.00000000
 S   1
 1         9.6283700              1.00000000
 S   1
 1         2.8533200              1.00000000
 S   1
 1         0.9056610              1.00000000
 S   1
 1         0.2556110              1.00000000
 S   1
 1         0.0845000              1.00000000
 P   4
 1       238.82507403             0.00071107
 2        42.1175000              0.01088929
 3         9.6283700              0.07471358
 4         2.8533200              0.25205556
 P   1
 1         0.9056610              1.00000000
 P   1
 1         0.2556110              1.00000000
 P   1
 1         0.0845000              1.00000000
 D   1
 1         1.2920000              1.00000000

H    1.0    -0.5852554135 -1.6007070636 -1.0533685306
 S 3
 1    118753.0892189              0.00000034
 2      5170.23631942             0.00001503
 3       340.31345127             0.00037853
 S   1
 1        33.8650000              1.00000000
 S   1
 1         5.0947900              1.00000000
 S   1
 1         1.1587900              1.00000000
 S   1
 1         0.3258400              1.00000000
 S   1
 1         0.1027410              1.00000000
 S   1
 1         0.0360000              1.00000000
 P   1
 1         0.7500000              1.00000000

O    8.0    -0.1995258952 4.5325252248 1.4261367575
 S   7
 1  31660948.4326500              0.00000005
 2   1341747.4801660              0.00000251
 3     86856.41933057             0.00006440
 4      8588.5000000              0.00098884
 5      1297.2300000              0.00798975
 6       299.2960000              0.03894177
 7         3.7400400              0.43596773
 S   1
 1        87.3771000              1.00000000
 S   1
 1        42.1175000              1.00000000
 S   1
 1        25.6789000              1.00000000
 S   1
 1         9.6283700              1.00000000
 S   1
 1         2.8533200              1.00000000
 S   1
 1         0.9056610              1.00000000
 S   1
 1         0.2556110              1.00000000
 S   1
 1         0.0845000              1.00000000
 P   4
 1       238.82507403             0.00071107
 2        42.1175000              0.01088929
 3         9.6283700              0.07471358
 4         2.8533200              0.25205556
 P   1