 $scf dirscf=.t. damp=.t. shift=.f.
   soscf=.f. diis=.t. fdiff=.f. extrap=.f. $end
 $system mwords=500 memddi=500 $end
 $intgrl schwrz=.t. intomp=1 shfock=.f. $end
 $guess guess=hcore $end
 $contrl scftyp=rhf runtyp=energy nprint=-5
     icharg=0 ispher=0 inttyp=eric 
     maxit=100 $end
 $end
 $data
ammonia_trimer 
C1
N    7.0    -1.5542244037 -0.0511489469 -0.2986225900
 S   7
 1  23421322.3838400              0.00000006
 2    988674.6264273              0.00000262
 3     63798.90182836             0.00006752
 4      6293.4800000              0.00103995
 5       949.0440000              0.00840880
 6       218.7760000              0.04094490
 7         2.7202300              0.43311373
 S   1
 1        63.6916000              1.00000000
 S   1
 1        30.6331000              1.00000000
 S   1
 1        18.8282000              1.00000000
 S   1
 1         7.0261400              1.00000000
 S   1
 1         2.1120500              1.00000000
 S   1
 1         0.6840090              1.00000000
 S   1
 1         0.2008780              1.00000000
 S   1
 1         0.0639000              1.00000000
 P   4
 1       175.03570330             0.00074214
 2        30.6331000              0.01117529
 3         7.0261400              0.07350563
 4         2.1120500              0.24667585
 P   1
 1         0.6840090              1.00000000
 P   1
 1         0.2008780              1.00000000
 P   1
 1         0.0639000              1.00000000
 D   1
 1         0.9130000              1.00000000

H    1.0    -2.0321635443 0.5624182562 -0.9252021618
 S 3
 1    118753.0892189              0.00000034
 2      5170.23631942             0.00001503
 3       340.31345127             0.00037853
 S   1
 1        33.8650000              1.00000000
 S   1
 1         5.0947900              1.00000000
 S   1
 1         1.1587900              1.00000000
 S   1
 1         0.3258400              1.00000000
 S   1
 1         0.1027410              1.00000000
 S   1
 1         0.0360000              1.00000000
 P   1
 1         0.7500000              1.00000000

H    1.0    -2.1624482510 -0.8188306603 -0.1031356671
 S 3
 1    118753.0892189              0.00000034
 2      5170.23631942             0.00001503
 3       340.31345127             0.00037853
 S   1
 1        33.8650000              1.00000000
 S   1
 1         5.0947900              1.00000000
 S   1
 1         1.1587900              1.00000000
 S   1
 1         0.3258400              1.00000000
 S   1
 1         0.1027410              1.00000000
 S   1
 1         0.0360000              1.00000000
 P   1
 1         0.7500000              1.00000000

H    1.0    -1.3869624696 0.4430817735 0.5566114110
 S 3
 1    118753.0892189              0.00000034
 2      5170.23631942             0.00001503
 3       340.31345127             0.00037853
 S   1
 1        33.8650000              1.00000000
 S   1
 1         5.0947900              1.00000000
 S   1
 1         1.1587900              1.00000000
 S   1
 1         0.3258400              1.00000000
 S   1
 1         0.1027410              1.00000000
 S   1
 1         0.0360000              1.00000000
 P   1
 1         0.7500000              1.00000000

N    7.0    1.7873149654 -0.1896081355 0.0378928717
 S   7
 1  23421322.3838400              0.00000006
 2    988674.6264273              0.00000262
 3     63798.90182836             0.00006752
 4      6293.4800000              0.00103995
 5       949.0440000              0.00840880
 6       218.7760000              0.04094490
 7         2.7202300              0.43311373
 S   1
 1        63.6916000              1.00000000
 S   1
 1        30.6331000              1.00000000
 S   1
 1        18.8282000              1.00000000
 S   1
 1         7.0261400              1.00000000
 S   1
 1         2.1120500              1.00000000
 S   1
 1         0.6840090              1.00000000
 S   1
 1         0.2008780              1.00000000
 S   1
 1         0.0639000              1.00000000
 P   4
 1       175.03570330             0.00074214
 2        30.6331000              0.01117529
 3         7.0261400              0.07350563
 4         2.1120500              0.24667585
 P   1
 1         0.6840090              1.00000000
 P   1
 1         0.2008780              1.00000000
 P   1
 1         0.0639000              1.00000000
 D   1
 1         0.9130000              1.00000000

H    1.0    2.3311645205 0.2541745893 -0.6726963521
 S 3
 1    118753.0892189              0.00000034
 2      5170.23631942             0.00001503
 3       340.31345127             0.00037853
 S   1
 1        33.8650000              1.00000000
 S   1
 1         5.0947900              1.00000000
 S   1
 1         1.1587900              1.00000000
 S   1
 1         0.3258400              1.00000000
 S   1
 1         0.1027410              1.00000000
 S   1
 1         0.0360000              1.00000000
 P   1
 1         0.7500000              1.00000000

H    1.0    0.8513798873 -0.2950302569 -0.3036424225
 S 3
 1    118753.0892189              0.00000034
 2      5170.23631942             0.00001503
 3       340.31345127             0.00037853
 S   1
 1        33.8650000              1.00000000
 S   1
 1         5.0947900              1.00000000
 S   1
 1         1.1587900              1.00000000
 S   1
 1         0.3258400              1.00000000
 S   1
 1         0.1027410              1.00000000
 S   1
 1         0.0360000              1.00000000
 P   1
 1         0.7500000              1.00000000

H    1.0    2.1692998889 -1.1003185009 0.1873223096
 S 3
 1    118753.0892189              0.00000034
 2      5170.23631942             0.00001503
 3       340.31345127             0.00037853
 S   1
 1        33.8650000              1.00000000
 S   1
 1         5.0947900              1.00000000
 S   1
 1         1.1587900              1.00000000
 S   1
 1         0.3258400              1.00000000
 S   1
 1         0.1027410              1.00000000
 S   1
 1         0.0360000              1.00000000
 P   1
 1         0.7500000              1.00000000

N    7.0    -0.0667666295 1.4310314884 2.3270371193
 S   7
 1  23421322.3838400              0.00000006
 2    988674.6264273              0.00000262
 3     63798.90182836             0.00006752
 4      6293.4800000              0.00103995
 5       949.0440000              0.00840880
 6       218.7760000              0.04094490
 7         2.7202300              0.43311373
 S   1
 1        63.6916000              1.00000000
 S   1
 1        30.6331000              1.00000000
 S   1
 1        18.8282000              1.00000000
 S   1
 1         7.0261400              1.00000000
 S   1
 1         2.1120500              1.00000000
 S   1
 1         0.6840090              1.00000000
 S   1
 1         0.2008780              1.00000000
 S   1
 1         0.0639000              1.00000000
 P   4
 1       175.03570330             0.00074214
 2        30.6331000              0.01117529
 3         7.0261400              0.07350563
 4         2.1120500              0.24667585
 P   1
 1         0.6840090              1.00000000
 P   1
 1         0.2008780              1.00000000
 P   1
 1         0.0639000              1.00000000
 D   1
 1         0.9130000              1.00000000

H    1.0    -0.0409238185 1.0573540265 3.2529529700
 S 3
 1    118753.0892189              0.00000034
 2      5170.23631942             0.00001503
 3       340.31345127             0.00037853
 S   1
 1        33.8650000              1.00000000
 S   1
 1         5.0947900              1.00000000
 S   1
 1         1.1587900              1.00000000
 S   1
 1         0.3258400              1.00000000
 S   1
 1         0.1027410              1.00000000
 S   1
 1         0.0360000              1.00000000
 P   1
 1         0.7500000              1.00000000

H    1.0    0.7022008808 1.0463521824 1.8126795903
 S 3
 1    118753.0892189              0.00000034
 2      5170.23631942             0.00001503
 3       340.31345127             0.00037853
 S   1
 1        33.8650000              1.00000000
 S   1
 1         5.0947900              1.00000000
 S   1
 1         1.1587900              1.00000000
 S   1
 1         0.3258400              1.00000000
 S   1
 1         0.1027410              1.00000000
 S   1
 1         0.0360000              1.00000000
 P   1
 1         0.7500000              1.00000000

H    1.0    0.0650891259 2.4187932641 2.3951900416 
 S 3
 1    118753.0892189              0.00000034
 2      5170.23631942             0.00001503
 3       340.31345127             0.00037853
 S   1
 1        33.8650000              1.00000000
 S   1
 1         5.0947900              1.00000000
 S   1
 1         1.1587900              1.00000000
 S   1
 1         0.3258400              1.00000000
 S   1
 1         0.1027410              1.00000000
 S   1
 1         0.0360000              1.00000000
 P   1
 1         0.7500000              1.00000000

 $end
