 $scf dirscf=.t. damp=.t. shift=.f.
   soscf=.f. diis=.t. fdiff=.f. extrap=.f. $end
 $system mwords=500 memddi=500 $end
 $intgrl schwrz=.t. intomp=1 shfock=.f. $end
 $guess guess=hcore $end
 $contrl scftyp=rhf runtyp=energy nprint=-5
     icharg=0 ispher=0 inttyp=eric 
     maxit=100 $end
 $end
 $data
ethene_2_ethyne 
C1
C    6.0    -0.0379317991 -0.6294816793 -2.1932653657
 S   7
 1  16876193.1394200              0.00000006
 2    717812.0184378              0.00000265
 3     46416.99275025             0.00006807
 4      4563.2400000              0.00105552
 5       682.0240000              0.00866603
 6       154.9730000              0.04301032
 7         1.8277300              0.43340136
 S   1
 1        44.4553000              1.00000000
 S   1
 1        20.9642000              1.00000000
 S   1
 1        13.0290000              1.00000000
 S   1
 1         4.8033100              1.00000000
 S   1
 1         1.4593300              1.00000000
 S   1
 1         0.4834560              1.00000000
 S   1
 1         0.1455850              1.00000000
 S   1
 1         0.0438000              1.00000000
 P   4
 1       121.32953805             0.00075096
 2        20.9642000              0.01110197
 3         4.8033100              0.07021793
 4         1.4593300              0.23201981
 P   1
 1         0.4834560              1.00000000
 P   1
 1         0.1455850              1.00000000
 P   1
 1         0.0438000              1.00000000
 D   1
 1         0.6260000              1.00000000

C    6.0    -0.0139537706 0.6856329645 -2.2042240933
 S   7
 1  16876193.1394200              0.00000006
 2    717812.0184378              0.00000265
 3     46416.99275025             0.00006807
 4      4563.2400000              0.00105552
 5       682.0240000              0.00866603
 6       154.9730000              0.04301032
 7         1.8277300              0.43340136
 S   1
 1        44.4553000              1.00000000
 S   1
 1        20.9642000              1.00000000
 S   1
 1        13.0290000              1.00000000
 S   1
 1         4.8033100              1.00000000
 S   1
 1         1.4593300              1.00000000
 S   1
 1         0.4834560              1.00000000
 S   1
 1         0.1455850              1.00000000
 S   1
 1         0.0438000              1.00000000
 P   4
 1       121.32953805             0.00075096
 2        20.9642000              0.01110197
 3         4.8033100              0.07021793
 4         1.4593300              0.23201981
 P   1
 1         0.4834560              1.00000000
 P   1
 1         0.1455850              1.00000000
 P   1
 1         0.0438000              1.00000000
 D   1
 1         0.6260000              1.00000000

H    1.0    0.8609681988 -1.2087380241 -2.0890530020
 S 3
 1    118753.0892189              0.00000034
 2      5170.23631942             0.00001503
 3       340.31345127             0.00037853
 S   1
 1        33.8650000              1.00000000
 S   1
 1         5.0947900              1.00000000
 S   1
 1         1.1587900              1.00000000
 S   1
 1         0.3258400              1.00000000
 S   1
 1         0.1027410              1.00000000
 S   1
 1         0.0360000              1.00000000
 P   1
 1         0.7500000              1.00000000

H    1.0    -0.9573200693 -1.1774379241 -2.2880447862
 S 3
 1    118753.0892189              0.00000034
 2      5170.23631942             0.00001503
 3       340.31345127             0.00037853
 S   1
 1        33.8650000              1.00000000
 S   1
 1         5.0947900              1.00000000
 S   1
 1         1.1587900              1.00000000
 S   1
 1         0.3258400              1.00000000
 S   1
 1         0.1027410              1.00000000
 S   1
 1         0.0360000              1.00000000
 P   1
 1         0.7500000              1.00000000

H    1.0    -0.9126128770 1.2650917328 -2.3091251323
 S 3
 1    118753.0892189              0.00000034
 2      5170.23631942             0.00001503
 3       340.31345127             0.00037853
 S   1
 1        33.8650000              1.00000000
 S   1
 1         5.0947900              1.00000000
 S   1
 1         1.1587900              1.00000000
 S   1
 1         0.3258400              1.00000000
 S   1
 1         0.1027410              1.00000000
 S   1
 1         0.0360000              1.00000000
 P   1
 1         0.7500000              1.00000000

H    1.0    0.9056519772 1.2334616292 -2.1100715405
 S 3
 1    118753.0892189              0.00000034
 2      5170.23631942             0.00001503
 3       340.31345127             0.00037853
 S   1
 1        33.8650000              1.00000000
 S   1
 1         5.0947900              1.00000000
 S   1
 1         1.1587900              1.00000000
 S   1
 1         0.3258400              1.00000000
 S   1
 1         0.1027410              1.00000000
 S   1
 1         0.0360000              1.00000000
 P   1
 1         0.7500000              1.00000000

C    6.0    0.1292581301 -0.1564871220 2.8895719671
 S   7
 1  16876193.1394200              0.00000006
 2    717812.0184378              0.00000265
 3     46416.99275025             0.00006807
 4      4563.2400000              0.00105552
 5       682.0240000              0.00866603
 6       154.9730000              0.04301032
 7         1.8277300              0.43340136
 S   1
 1        44.4553000              1.00000000
 S   1
 1        20.9642000              1.00000000
 S   1
 1        13.0290000              1.00000000
 S   1
 1         4.8033100              1.00000000
 S   1
 1         1.4593300              1.00000000
 S   1
 1         0.4834560              1.00000000
 S   1
 1         0.1455850              1.00000000
 S   1
 1         0.0438000              1.00000000
 P   4
 1       121.32953805             0.00075096
 2        20.9642000              0.01110197
 3         4.8033100              0.07021793
 4         1.4593300              0.23201981
 P   1
 1         0.4834560              1.00000000
 P   1
 1         0.1455850              1.00000000
 P   1
 1         0.0438000              1.00000000
 D   1
 1         0.6260000              1.00000000

C    6.0    0.0388350014 -0.0796458509 1.7139474474
 S   7
 1  16876193.1394200              0.00000006
 2    717812.0184378              0.00000265
 3     46416.99275025             0.00006807
 4      4563.2400000              0.00105552
 5       682.0240000              0.00866603
 6       154.9730000              0.04301032
 7         1.8277300              0.43340136
 S   1
 1        44.4553000              1.00000000
 S   1
 1        20.9642000              1.00000000
 S   1
 1        13.0290000              1.00000000
 S   1
 1         4.8033100              1.00000000
 S   1
 1         1.4593300              1.00000000
 S   1
 1         0.4834560              1.00000000
 S   1
 1         0.1455850              1.00000000
 S   1
 1         0.0438000              1.00000000
 P   4
 1       121.32953805             0.00075096
 2        20.9642000              0.01110197
 3         4.8033100              0.07021793
 4         1.4593300              0.23201981
 P   1
 1         0.4834560              1.00000000
 P   1
 1         0.1455850              1.00000000
 P   1
 1         0.0438000              1.00000000
 D   1
 1         0.6260000              1.00000000

H    1.0    -0.0410289302 -0.0122235075 0.6636056327
 S 3
 1    118753.0892189              0.00000034
 2      5170.23631942             0.00001503
 3       340.31345127             0.00037853
 S   1
 1        33.8650000              1.00000000
 S   1
 1         5.0947900              1.00000000
 S   1
 1         1.1587900              1.00000000
 S   1
 1         0.3258400              1.00000000
 S   1
 1         0.1027410              1.00000000
 S   1
 1         0.0360000              1.00000000
 P   1
 1         0.7500000              1.00000000

H    1.0    0.2092057413 -0.2255186959 3.9398280771
 S 3
 1    118753.0892189              0.00000034
 2      5170.23631942             0.00001503
 3       340.31345127             0.00037853
 S   1
 1        33.8650000              1.00000000
 S   1
 1         5.0947900              1.00000000
 S   1
 1         1.1587900              1.00000000
 S   1
 1         0.3258400              1.00000000
 S   1
 1         0.1027410              1.00000000
 S   1
 1         0.0360000              1.00000000
 P   1
 1         0.7500000              1.00000000

H    1.0    -0.9117151404 -1.4457095887 6.6345956627
 S 3
 1    118753.0892189              0.00000034
 2      5170.23631942             0.00001503
 3       340.31345127             0.00037853
 S   1
 1        33.8650000              1.00000000
 S   1
 1         5.0947900              1.00000000
 S   1
 1         1.1587900              1.00000000
 S   1
 1         0.3258400              1.00000000
 S   1
 1         0.1027410              1.00000000
 S   1
 1         0.0360000              1.00000000
 P   1
 1         0.7500000              1.00000000

C    6.0    0.0842948289 -1.0599225519 6.7512292343
 S   7
 1  16876193.1394200              0.00000006
 2    717812.0184378              0.00000265
 3     46416.99275025             0.00006807
 4      4563.2400000              0.00105552
 5       682.0240000              0.00866603
 6       154.9730000              0.04301032
 7         1.8277300              0.43340136
 S   1
 1        44.4553000              1.00000000
 S   1
 1        20.9642000              1.00000000
 S   1
 1        13.0290000              1.00000000
 S   1
 1         4.8033100              1.00000000
 S   1
 1         1.4593300              1.00000000
 S   1
 1         0.4834560              1.00000000
 S   1
 1         0.1455850              1.00000000
 S   1
 1         0.0438000              1.00000000
 P   4
 1       121.32953805             0.00075096
 2        20.9642000              0.01110197
 3         4.8033100              0.07021793
 4         1.4593300              0.23201981
 P   1
 1         0.4834560              1.00000000
 P   1
 1         0.1455850              1.00000000
 P   1
 1         0.0438000              1.00000000
 D   1
 1         0.6260000              1.00000000

H    1.0    0.8787663470 -1.7815587267 6.8013095448
 S 3
 1    118753.0892189              0.00000034
 2      5170.23631942             0.00001503
 3       340.31345127             0.00037853
 S   1
 1        33.8650000              1.00000000
 S   1
 1         5.0947900              1.00000000
 S   1
 1         1.1587900              1.00000000
 S   1
 1         0.3258400              1.00000000
 S   1
 1         0.1027410              1.00000000
 S   1
 1         0.0360000              1.00000000
 P   1
 1         0.7500000              1.00000000

C    6.0    0.3191735748 0.2319601930 6.8293048518
 S   7
 1  16876193.1394200              0.00000006
 2    717812.0184378              0.00000265
 3     46416.99275025             0.00006807
 4      4563.2400000              0.00105552
 5       682.0240000              0.00866603
 6       154.9730000              0.04301032
 7         1.8277300              0.43340136
 S   1
 1        44.4553000              1.00000000
 S   1
 1        20.9642000              1.00000000
 S   1
 1        13.0290000              1.00000000
 S   1
 1         4.8033100              1.00000000
 S   1
 1         1.4593300              1.00000000
 S   1
 1         0.4834560              1.00000000
 S   1
 1         0.1455850              1.00000000
 S   1
 1         0.0438000              1.00000000
 P   4
 1       121.32953805             0.00075096
 2        20.9642000              0.01110197
 3         4.8033100              0.07021793
 4         1.4593300              0.23201981
 P   1
 1         0.4834560              1.00000000
 P   1
 1         0.1455850              1.00000000
 P   1
 1         0.0438000              1.00000000
 D   1
 1         0.6260000              1.00000000

H    1.0    -0.4755772197 0.9534161942 6.7796142214
 S 3
 1    118753.0892189              0.00000034
 2      5170.23631942             0.00001503
 3       340.31345127             0.00037853
 S   1
 1        33.8650000              1.00000000
 S   1
 1         5.0947900              1.00000000
 S   1
 1         1.1587900              1.00000000
 S   1
 1         0.3258400              1.00000000
 S   1
 1         0.1027410              1.00000000
 S   1
 1         0.0360000              1.00000000
 P   1
 1         0.7500000              1.00000000

H    1.0    1.3149745318 0.6179788823 6.9463828856
 S 3
 1    118753.0892189              0.00000034
 2      5170.23631942             0.00001503
 3       340.31345127             0.00037853
 S   1
 1        33.8650000              1.00000000
 S   1
 1         5.0947900              1.00000000
 S   1
 1         1.1587900              1.00000000
 S   1
 1         0.3258400              1.00000000
 S   1
 1         0.1027410              1.00000000
 S   1
 1         0.0360000              1.00000000
 P   1
 1         0.7500000              1.00000000

 $end
